*SPEF "ieee 1481-1999"
*DESIGN "top"
*DATE "15:57:00 Saturday August 01, 2026"
*VENDOR "The OpenROAD Project"
*PROGRAM "OpenROAD"
*VERSION "26Q3-904-geaaa6e36cb"
*DESIGN_FLOW "NAME_SCOPE LOCAL" "PIN_CAP NONE"
*DIVIDER /
*DELIMITER :
*BUS_DELIMITER []
*T_UNIT 1 NS
*C_UNIT 1 PF
*R_UNIT 1 OHM
*L_UNIT 1 HENRY

*NAME_MAP
*551 A[0]
*1036 A[1]
*900 A[2]
*881 A[3]
*872 A[4]
*871 A[5]
*869 A[6]
*867 A[7]
*863 B[0]
*861 B[1]
*860 B[2]
*858 B[3]
*857 B[4]
*855 B[5]
*849 B[6]
*847 B[7]
*17 U_RAM\.mem\[0\]\[0\]
*18 U_RAM\.mem\[0\]\[1\]
*19 U_RAM\.mem\[0\]\[2\]
*20 U_RAM\.mem\[0\]\[3\]
*21 U_RAM\.mem\[0\]\[4\]
*22 U_RAM\.mem\[0\]\[5\]
*23 U_RAM\.mem\[0\]\[6\]
*24 U_RAM\.mem\[0\]\[7\]
*25 U_RAM\.mem\[10\]\[0\]
*26 U_RAM\.mem\[10\]\[1\]
*27 U_RAM\.mem\[10\]\[2\]
*28 U_RAM\.mem\[10\]\[3\]
*29 U_RAM\.mem\[10\]\[4\]
*30 U_RAM\.mem\[10\]\[5\]
*31 U_RAM\.mem\[10\]\[6\]
*32 U_RAM\.mem\[10\]\[7\]
*33 U_RAM\.mem\[11\]\[0\]
*34 U_RAM\.mem\[11\]\[1\]
*35 U_RAM\.mem\[11\]\[2\]
*36 U_RAM\.mem\[11\]\[3\]
*37 U_RAM\.mem\[11\]\[4\]
*38 U_RAM\.mem\[11\]\[5\]
*39 U_RAM\.mem\[11\]\[6\]
*40 U_RAM\.mem\[11\]\[7\]
*41 U_RAM\.mem\[12\]\[0\]
*42 U_RAM\.mem\[12\]\[1\]
*43 U_RAM\.mem\[12\]\[2\]
*44 U_RAM\.mem\[12\]\[3\]
*45 U_RAM\.mem\[12\]\[4\]
*46 U_RAM\.mem\[12\]\[5\]
*47 U_RAM\.mem\[12\]\[6\]
*48 U_RAM\.mem\[12\]\[7\]
*49 U_RAM\.mem\[13\]\[0\]
*50 U_RAM\.mem\[13\]\[1\]
*51 U_RAM\.mem\[13\]\[2\]
*52 U_RAM\.mem\[13\]\[3\]
*53 U_RAM\.mem\[13\]\[4\]
*54 U_RAM\.mem\[13\]\[5\]
*55 U_RAM\.mem\[13\]\[6\]
*56 U_RAM\.mem\[13\]\[7\]
*57 U_RAM\.mem\[14\]\[0\]
*58 U_RAM\.mem\[14\]\[1\]
*59 U_RAM\.mem\[14\]\[2\]
*60 U_RAM\.mem\[14\]\[3\]
*61 U_RAM\.mem\[14\]\[4\]
*62 U_RAM\.mem\[14\]\[5\]
*63 U_RAM\.mem\[14\]\[6\]
*64 U_RAM\.mem\[14\]\[7\]
*65 U_RAM\.mem\[15\]\[0\]
*66 U_RAM\.mem\[15\]\[1\]
*67 U_RAM\.mem\[15\]\[2\]
*68 U_RAM\.mem\[15\]\[3\]
*69 U_RAM\.mem\[15\]\[4\]
*70 U_RAM\.mem\[15\]\[5\]
*71 U_RAM\.mem\[15\]\[6\]
*72 U_RAM\.mem\[15\]\[7\]
*73 U_RAM\.mem\[1\]\[0\]
*74 U_RAM\.mem\[1\]\[1\]
*75 U_RAM\.mem\[1\]\[2\]
*76 U_RAM\.mem\[1\]\[3\]
*77 U_RAM\.mem\[1\]\[4\]
*78 U_RAM\.mem\[1\]\[5\]
*79 U_RAM\.mem\[1\]\[6\]
*80 U_RAM\.mem\[1\]\[7\]
*81 U_RAM\.mem\[2\]\[0\]
*82 U_RAM\.mem\[2\]\[1\]
*83 U_RAM\.mem\[2\]\[2\]
*84 U_RAM\.mem\[2\]\[3\]
*85 U_RAM\.mem\[2\]\[4\]
*86 U_RAM\.mem\[2\]\[5\]
*87 U_RAM\.mem\[2\]\[6\]
*88 U_RAM\.mem\[2\]\[7\]
*89 U_RAM\.mem\[3\]\[0\]
*90 U_RAM\.mem\[3\]\[1\]
*91 U_RAM\.mem\[3\]\[2\]
*92 U_RAM\.mem\[3\]\[3\]
*93 U_RAM\.mem\[3\]\[4\]
*94 U_RAM\.mem\[3\]\[5\]
*95 U_RAM\.mem\[3\]\[6\]
*96 U_RAM\.mem\[3\]\[7\]
*97 U_RAM\.mem\[4\]\[0\]
*98 U_RAM\.mem\[4\]\[1\]
*99 U_RAM\.mem\[4\]\[2\]
*100 U_RAM\.mem\[4\]\[3\]
*101 U_RAM\.mem\[4\]\[4\]
*102 U_RAM\.mem\[4\]\[5\]
*103 U_RAM\.mem\[4\]\[6\]
*104 U_RAM\.mem\[4\]\[7\]
*105 U_RAM\.mem\[5\]\[0\]
*106 U_RAM\.mem\[5\]\[1\]
*107 U_RAM\.mem\[5\]\[2\]
*108 U_RAM\.mem\[5\]\[3\]
*109 U_RAM\.mem\[5\]\[4\]
*110 U_RAM\.mem\[5\]\[5\]
*111 U_RAM\.mem\[5\]\[6\]
*112 U_RAM\.mem\[5\]\[7\]
*113 U_RAM\.mem\[6\]\[0\]
*114 U_RAM\.mem\[6\]\[1\]
*115 U_RAM\.mem\[6\]\[2\]
*116 U_RAM\.mem\[6\]\[3\]
*117 U_RAM\.mem\[6\]\[4\]
*118 U_RAM\.mem\[6\]\[5\]
*119 U_RAM\.mem\[6\]\[6\]
*120 U_RAM\.mem\[6\]\[7\]
*121 U_RAM\.mem\[7\]\[0\]
*122 U_RAM\.mem\[7\]\[1\]
*123 U_RAM\.mem\[7\]\[2\]
*124 U_RAM\.mem\[7\]\[3\]
*125 U_RAM\.mem\[7\]\[4\]
*126 U_RAM\.mem\[7\]\[5\]
*127 U_RAM\.mem\[7\]\[6\]
*128 U_RAM\.mem\[7\]\[7\]
*129 U_RAM\.mem\[8\]\[0\]
*130 U_RAM\.mem\[8\]\[1\]
*131 U_RAM\.mem\[8\]\[2\]
*132 U_RAM\.mem\[8\]\[3\]
*133 U_RAM\.mem\[8\]\[4\]
*134 U_RAM\.mem\[8\]\[5\]
*135 U_RAM\.mem\[8\]\[6\]
*136 U_RAM\.mem\[8\]\[7\]
*137 U_RAM\.mem\[9\]\[0\]
*138 U_RAM\.mem\[9\]\[1\]
*139 U_RAM\.mem\[9\]\[2\]
*140 U_RAM\.mem\[9\]\[3\]
*141 U_RAM\.mem\[9\]\[4\]
*142 U_RAM\.mem\[9\]\[5\]
*143 U_RAM\.mem\[9\]\[6\]
*144 U_RAM\.mem\[9\]\[7\]
*145 _0000_
*146 _0001_
*147 _0002_
*148 _0003_
*149 _0004_
*150 _0005_
*151 _0006_
*152 _0007_
*153 _0008_
*154 _0009_
*155 _0010_
*156 _0011_
*157 _0012_
*158 _0013_
*159 _0014_
*160 _0015_
*161 _0016_
*162 _0017_
*163 _0018_
*164 _0019_
*165 _0020_
*166 _0021_
*167 _0022_
*168 _0023_
*169 _0024_
*170 _0025_
*171 _0026_
*172 _0027_
*173 _0028_
*174 _0029_
*175 _0030_
*176 _0031_
*177 _0032_
*178 _0033_
*179 _0034_
*180 _0035_
*181 _0036_
*182 _0037_
*183 _0038_
*184 _0039_
*185 _0040_
*186 _0041_
*187 _0042_
*188 _0043_
*189 _0044_
*190 _0045_
*191 _0046_
*192 _0047_
*193 _0048_
*194 _0049_
*195 _0050_
*196 _0051_
*197 _0052_
*198 _0053_
*199 _0054_
*200 _0055_
*201 _0056_
*202 _0057_
*203 _0058_
*204 _0059_
*205 _0060_
*206 _0061_
*207 _0062_
*208 _0063_
*209 _0064_
*210 _0065_
*211 _0066_
*212 _0067_
*213 _0068_
*214 _0069_
*215 _0070_
*216 _0071_
*217 _0072_
*218 _0073_
*219 _0074_
*220 _0075_
*221 _0076_
*222 _0077_
*223 _0078_
*224 _0079_
*225 _0080_
*226 _0081_
*227 _0082_
*228 _0083_
*229 _0084_
*230 _0085_
*231 _0086_
*232 _0087_
*233 _0088_
*234 _0089_
*235 _0090_
*236 _0091_
*237 _0092_
*238 _0093_
*239 _0094_
*240 _0095_
*241 _0096_
*242 _0097_
*243 _0098_
*244 _0099_
*245 _0100_
*246 _0101_
*247 _0102_
*248 _0103_
*249 _0104_
*250 _0105_
*251 _0106_
*252 _0107_
*253 _0108_
*254 _0109_
*255 _0110_
*256 _0111_
*257 _0112_
*258 _0113_
*259 _0114_
*260 _0115_
*261 _0116_
*262 _0117_
*263 _0118_
*264 _0119_
*265 _0120_
*266 _0121_
*267 _0122_
*268 _0123_
*269 _0124_
*270 _0125_
*271 _0126_
*272 _0127_
*273 _0128_
*274 _0129_
*275 _0130_
*276 _0131_
*277 _0132_
*278 _0133_
*279 _0134_
*280 _0135_
*281 _0136_
*282 _0137_
*283 _0138_
*284 _0139_
*285 _0140_
*286 _0141_
*287 _0142_
*288 _0143_
*289 _0144_
*290 _0145_
*291 _0146_
*292 _0147_
*293 _0148_
*294 _0149_
*295 _0150_
*296 _0151_
*297 _0152_
*298 _0153_
*299 _0154_
*300 _0155_
*301 _0156_
*302 _0157_
*303 _0158_
*304 _0159_
*305 _0160_
*306 _0161_
*307 _0162_
*308 _0163_
*309 _0164_
*310 _0165_
*311 _0166_
*312 _0167_
*313 _0168_
*314 _0169_
*315 _0170_
*316 _0171_
*317 _0172_
*318 _0173_
*319 _0174_
*320 _0175_
*321 _0176_
*322 _0177_
*323 _0178_
*324 _0179_
*325 _0180_
*326 _0181_
*327 _0182_
*328 _0183_
*329 _0184_
*330 _0185_
*331 _0186_
*332 _0187_
*333 _0188_
*334 _0189_
*335 _0190_
*336 _0191_
*337 _0192_
*338 _0193_
*339 _0194_
*340 _0195_
*341 _0196_
*342 _0197_
*343 _0198_
*344 _0199_
*345 _0200_
*346 _0201_
*347 _0202_
*348 _0203_
*349 _0204_
*350 _0205_
*351 _0206_
*352 _0207_
*353 _0208_
*354 _0209_
*355 _0210_
*356 _0211_
*357 _0212_
*358 _0213_
*359 _0214_
*360 _0215_
*361 _0216_
*362 _0217_
*363 _0218_
*364 _0219_
*365 _0220_
*366 _0221_
*367 _0222_
*368 _0223_
*369 _0224_
*370 _0225_
*371 _0226_
*372 _0227_
*373 _0228_
*374 _0229_
*375 _0230_
*376 _0231_
*377 _0232_
*378 _0233_
*379 _0234_
*380 _0235_
*381 _0236_
*382 _0237_
*383 _0238_
*384 _0239_
*385 _0240_
*386 _0241_
*387 _0242_
*388 _0243_
*389 _0244_
*390 _0245_
*391 _0246_
*392 _0247_
*393 _0248_
*394 _0249_
*395 _0250_
*396 _0251_
*397 _0252_
*398 _0253_
*399 _0254_
*400 _0255_
*401 _0256_
*402 _0257_
*403 _0258_
*404 _0259_
*405 _0260_
*406 _0261_
*407 _0262_
*408 _0263_
*409 _0264_
*410 _0265_
*411 _0266_
*412 _0267_
*413 _0268_
*414 _0269_
*415 _0270_
*416 _0271_
*417 _0272_
*418 _0273_
*419 _0274_
*420 _0275_
*421 _0276_
*422 _0277_
*423 _0278_
*424 _0279_
*425 _0280_
*426 _0281_
*427 _0282_
*428 _0283_
*429 _0284_
*430 _0285_
*431 _0286_
*432 _0287_
*433 _0288_
*434 _0289_
*435 _0290_
*436 _0291_
*437 _0292_
*438 _0293_
*439 _0294_
*440 _0295_
*441 _0296_
*442 _0297_
*443 _0298_
*444 _0299_
*445 _0300_
*446 _0301_
*447 _0302_
*448 _0303_
*449 _0304_
*450 _0305_
*451 _0306_
*452 _0307_
*453 _0308_
*454 _0309_
*455 _0310_
*456 _0311_
*457 _0312_
*458 _0313_
*459 _0314_
*460 _0315_
*461 _0316_
*462 _0317_
*463 _0318_
*464 _0319_
*465 _0320_
*466 _0321_
*467 _0322_
*468 _0323_
*469 _0324_
*470 _0325_
*471 _0326_
*472 _0327_
*473 _0328_
*474 _0329_
*475 _0330_
*476 _0331_
*477 _0332_
*478 _0333_
*479 _0334_
*480 _0335_
*481 _0336_
*482 _0337_
*483 _0338_
*484 _0339_
*485 _0340_
*486 _0341_
*487 _0342_
*488 _0343_
*489 _0344_
*490 _0345_
*491 _0346_
*492 _0347_
*493 _0348_
*494 _0349_
*495 _0350_
*496 _0351_
*497 _0352_
*498 _0353_
*499 _0354_
*500 _0355_
*501 _0356_
*502 _0357_
*503 _0358_
*504 _0359_
*505 _0360_
*506 _0361_
*507 _0362_
*508 _0363_
*509 _0364_
*510 _0365_
*511 _0366_
*512 _0367_
*513 _0368_
*514 _0369_
*515 _0370_
*516 _0371_
*517 _0372_
*518 _0373_
*519 _0374_
*520 _0375_
*521 _0376_
*522 _0377_
*523 _0378_
*524 _0379_
*525 _0380_
*526 _0381_
*527 _0382_
*528 _0383_
*529 _0384_
*530 _0385_
*531 _0386_
*532 _0387_
*533 _0388_
*534 _0389_
*535 _0390_
*536 _0391_
*537 _0392_
*538 _0393_
*539 _0394_
*540 _0395_
*541 _0396_
*542 _0397_
*543 _0398_
*544 _0399_
*545 _0400_
*546 _0401_
*547 _0402_
*548 _0403_
*549 _0404_
*550 _0405_
*552 _0407_
*553 _0408_
*554 _0409_
*555 _0410_
*556 _0411_
*557 _0412_
*558 _0413_
*559 _0414_
*560 _0415_
*561 _0416_
*562 _0417_
*563 _0418_
*564 _0419_
*565 _0420_
*566 _0421_
*567 _0422_
*568 _0423_
*569 _0424_
*570 _0425_
*571 _0426_
*572 _0427_
*573 _0428_
*574 _0429_
*575 _0430_
*576 _0431_
*577 _0432_
*578 _0433_
*579 _0434_
*580 _0435_
*581 _0436_
*582 _0437_
*583 _0438_
*584 _0439_
*585 _0440_
*586 _0441_
*587 _0442_
*588 _0443_
*589 _0444_
*590 _0445_
*591 _0446_
*592 _0447_
*594 _0449_
*596 _0451_
*597 _0452_
*599 _0454_
*600 _0455_
*601 _0456_
*602 _0457_
*603 _0458_
*604 _0459_
*605 _0460_
*606 _0461_
*607 _0462_
*608 _0463_
*610 _0465_
*611 _0466_
*612 _0467_
*613 _0468_
*614 _0469_
*615 _0470_
*616 _0471_
*617 _0472_
*618 _0473_
*619 _0474_
*620 _0475_
*621 _0476_
*622 _0477_
*623 _0478_
*625 _0480_
*627 _0482_
*628 _0483_
*629 _0484_
*630 _0485_
*631 _0486_
*632 _0487_
*633 _0488_
*634 _0489_
*635 _0490_
*636 _0491_
*637 _0492_
*639 _0494_
*640 _0495_
*641 _0496_
*642 _0497_
*643 _0498_
*644 _0499_
*645 _0500_
*646 _0501_
*647 _0502_
*648 _0503_
*649 _0504_
*650 _0505_
*651 _0506_
*652 _0507_
*653 _0508_
*654 _0509_
*655 _0510_
*656 _0511_
*657 _0512_
*660 _0515_
*661 _0516_
*662 _0517_
*663 _0518_
*664 _0519_
*667 _0522_
*668 _0523_
*669 _0524_
*670 _0525_
*671 _0526_
*672 _0527_
*673 _0528_
*674 _0529_
*675 _0530_
*676 _0531_
*677 _0532_
*678 _0533_
*679 _0534_
*680 _0535_
*681 _0536_
*682 _0537_
*683 _0538_
*684 _0539_
*685 _0540_
*686 _0541_
*687 _0542_
*688 _0543_
*689 _0544_
*690 _0545_
*692 _0547_
*693 _0548_
*694 _0549_
*695 _0550_
*696 _0551_
*697 _0552_
*698 _0553_
*699 _0554_
*700 _0555_
*701 _0556_
*702 _0557_
*703 _0558_
*704 _0559_
*705 _0560_
*706 _0561_
*707 _0562_
*708 _0563_
*709 _0564_
*710 _0565_
*711 _0566_
*712 _0567_
*713 _0568_
*714 _0569_
*715 _0570_
*716 _0571_
*717 _0572_
*719 _0574_
*720 _0575_
*721 _0576_
*722 _0577_
*723 _0578_
*724 _0579_
*725 _0580_
*726 _0581_
*727 _0582_
*728 _0583_
*729 _0584_
*730 _0585_
*731 _0586_
*732 _0587_
*733 _0588_
*735 _0590_
*736 _0591_
*737 _0592_
*738 _0593_
*739 _0594_
*740 _0595_
*741 _0596_
*742 _0597_
*743 _0598_
*744 _0599_
*745 _0600_
*746 _0601_
*747 _0602_
*748 _0603_
*749 _0604_
*750 _0605_
*751 _0606_
*752 _0607_
*753 _0608_
*754 _0609_
*755 _0610_
*756 _0611_
*758 _0613_
*759 _0614_
*760 _0615_
*761 _0616_
*762 _0617_
*763 _0618_
*764 _0619_
*765 _0620_
*766 _0621_
*767 _0622_
*768 _0623_
*769 _0624_
*770 _0625_
*771 _0626_
*772 _0627_
*773 _0628_
*774 _0629_
*775 _0630_
*776 _0631_
*777 _0632_
*778 _0633_
*779 _0634_
*781 _0636_
*782 _0637_
*783 _0638_
*784 _0639_
*785 _0640_
*786 _0641_
*787 _0642_
*788 _0643_
*789 _0644_
*790 _0645_
*791 _0646_
*792 _0647_
*793 _0648_
*794 _0649_
*795 _0650_
*797 _0652_
*798 _0653_
*799 _0654_
*800 _0655_
*801 _0656_
*802 _0657_
*803 _0658_
*804 _0659_
*805 _0660_
*806 _0661_
*807 _0662_
*808 _0663_
*809 _0664_
*810 _0665_
*811 _0666_
*813 _0668_
*814 _0669_
*815 _0670_
*816 _0671_
*817 _0672_
*818 _0673_
*819 _0674_
*820 _0675_
*821 _0676_
*822 _0677_
*823 _0678_
*824 _0679_
*825 _0680_
*826 _0681_
*827 _0682_
*828 _0683_
*829 _0684_
*830 _0685_
*831 _0686_
*833 _0688_
*834 _0689_
*835 _0690_
*837 _0692_
*839 _0694_
*844 _0699_
*845 _0700_
*848 _0703_
*850 _0705_
*851 _0706_
*852 _0707_
*853 _0708_
*854 _0709_
*856 _0711_
*859 _0714_
*862 _0717_
*864 _0719_
*865 _0720_
*866 _0721_
*868 _0723_
*870 _0725_
*873 _0728_
*874 _0729_
*875 _0730_
*876 _0731_
*877 _0732_
*878 _0733_
*879 _0734_
*880 _0735_
*882 _0737_
*883 _0738_
*884 _0739_
*885 _0740_
*886 _0741_
*887 _0742_
*888 _0743_
*889 _0744_
*890 _0745_
*891 _0746_
*892 _0747_
*893 _0748_
*894 _0749_
*895 _0750_
*896 _0751_
*897 _0752_
*898 _0753_
*899 _0754_
*901 _0756_
*902 _0757_
*903 _0758_
*904 _0759_
*905 _0760_
*906 _0761_
*907 _0762_
*908 _0763_
*909 _0764_
*910 _0765_
*911 _0766_
*912 _0767_
*913 _0768_
*914 _0769_
*915 _0770_
*916 _0771_
*917 _0772_
*918 _0773_
*919 _0774_
*920 _0775_
*921 _0776_
*922 _0777_
*923 _0778_
*924 _0779_
*925 _0780_
*926 _0781_
*927 _0782_
*928 _0783_
*929 _0784_
*930 _0785_
*931 _0786_
*932 _0787_
*933 _0788_
*934 _0789_
*935 _0790_
*936 _0791_
*937 _0792_
*938 _0793_
*939 _0794_
*940 _0795_
*941 _0796_
*942 _0797_
*943 _0798_
*944 _0799_
*945 _0800_
*946 _0801_
*947 _0802_
*948 _0803_
*949 _0804_
*950 _0805_
*951 _0806_
*952 _0807_
*953 _0808_
*954 _0809_
*955 _0810_
*956 _0811_
*957 _0812_
*958 _0813_
*959 _0814_
*960 _0815_
*961 _0816_
*962 _0817_
*963 _0818_
*964 _0819_
*965 _0820_
*966 _0821_
*967 _0822_
*968 _0823_
*969 _0824_
*970 _0825_
*971 _0826_
*972 _0827_
*973 _0828_
*974 _0829_
*975 _0830_
*976 _0831_
*977 _0832_
*978 _0833_
*979 _0834_
*980 _0835_
*981 _0836_
*982 _0837_
*983 _0838_
*984 _0839_
*985 _0840_
*986 _0841_
*987 _0842_
*988 _0843_
*989 _0844_
*990 _0845_
*991 _0846_
*992 _0847_
*993 _0848_
*994 _0849_
*995 _0850_
*996 _0851_
*997 _0852_
*998 _0853_
*999 _0854_
*1000 _0855_
*1001 _0856_
*1002 _0857_
*1003 _0858_
*1004 _0859_
*1005 _0860_
*1006 _0861_
*1007 _0862_
*1008 _0863_
*1009 _0864_
*1010 _0865_
*1011 _0866_
*1012 _0867_
*1013 _0868_
*1014 _0869_
*1015 _0870_
*1016 _0871_
*1017 _0872_
*1018 _0873_
*1019 _0874_
*1020 _0875_
*1021 _0876_
*1022 _0877_
*1023 _0878_
*1024 _0879_
*1025 _0880_
*1026 _0881_
*1027 _0882_
*1028 _0883_
*1029 _0884_
*1030 _0885_
*1031 _0886_
*1032 _0887_
*1033 _0888_
*1034 _0889_
*1035 _0890_
*1037 _0892_
*1038 _0893_
*1039 _0894_
*1040 _0895_
*1041 _0896_
*1042 _0897_
*1043 _0898_
*1044 _0899_
*1045 _0900_
*1046 _0901_
*1047 _0902_
*1048 _0903_
*1049 _0904_
*1050 _0905_
*1051 _0906_
*1052 _0907_
*1053 _0908_
*1054 _0909_
*1055 _0910_
*1056 _0911_
*1057 _0912_
*1058 _0913_
*1059 _0914_
*1060 _0915_
*1061 _0916_
*1062 _0917_
*1063 _0918_
*1064 _0919_
*1065 _0920_
*1066 _0921_
*1067 _0922_
*1068 _0923_
*1069 _0924_
*1070 _0925_
*1071 _0926_
*1072 _0927_
*1073 _0928_
*1074 _0929_
*1075 _0930_
*1076 _0931_
*1077 _0932_
*1078 _0933_
*1079 _0934_
*1080 _0935_
*1081 _0936_
*1082 _0937_
*1083 _0938_
*1084 _0939_
*1085 _0940_
*1086 _0941_
*1087 _0942_
*1088 _0943_
*1089 _0944_
*1090 _0945_
*1091 _0946_
*1092 _0947_
*1093 _0948_
*1094 _0949_
*1095 _0950_
*1096 _0951_
*1097 _0952_
*1098 _0953_
*1099 _0954_
*1100 _0955_
*1101 _0956_
*1102 _0957_
*1103 _0958_
*1104 _0959_
*1105 _0960_
*1106 _0961_
*1107 _0962_
*1108 _0963_
*1109 _0964_
*1110 _0965_
*1111 _0966_
*1112 _0967_
*1113 _0968_
*1114 _0969_
*1115 _0970_
*1116 _0971_
*1117 _0972_
*1118 _0973_
*1119 _0974_
*1120 _0975_
*1121 _0976_
*1122 _0977_
*1123 _0978_
*1124 _0979_
*1125 _0980_
*1126 _0981_
*1127 _0982_
*1128 _0983_
*1129 _0984_
*1130 _0985_
*1131 _0986_
*1132 _0987_
*1133 _0988_
*1134 _0989_
*1135 _0990_
*1136 _0991_
*1137 _0992_
*1138 _0993_
*1139 _0994_
*1140 _0995_
*1141 _0996_
*1142 _0997_
*1143 _0998_
*1144 _0999_
*1145 _1000_
*1146 _1001_
*1147 _1002_
*1148 _1003_
*1149 _1004_
*1150 _1005_
*1151 _1006_
*1152 _1007_
*1153 _1008_
*1154 _1009_
*1155 _1010_
*1156 _1011_
*1157 _1012_
*1158 _1013_
*1159 _1014_
*1160 _1015_
*1161 _1016_
*1162 _1017_
*1163 _1018_
*1164 _1019_
*1165 _1020_
*1166 _1021_
*1167 _1022_
*1168 _1023_
*1169 _1024_
*1170 _1025_
*1171 _1026_
*1172 _1027_
*1173 _1028_
*1174 _1029_
*1175 _1030_
*1176 _1031_
*1177 _1032_
*1178 _1033_
*1179 _1034_
*1180 _1035_
*1181 _1036_
*1182 _1037_
*1183 _1038_
*1184 _1039_
*1185 _1040_
*1186 _1041_
*1187 _1042_
*1188 _1043_
*1189 _1044_
*1190 _1045_
*1191 _1046_
*1192 _1047_
*1193 _1048_
*1194 _1049_
*1195 _1050_
*1196 _1051_
*1197 _1052_
*1198 _1053_
*1199 _1054_
*1200 _1055_
*1201 _1056_
*1202 _1057_
*1203 _1058_
*1204 _1059_
*1205 _1060_
*1206 _1061_
*1207 _1062_
*1208 _1063_
*1209 _1064_
*1210 _1065_
*1211 _1066_
*1212 _1067_
*1213 _1068_
*1214 _1069_
*1215 _1070_
*1216 _1071_
*1217 _1072_
*1218 _1073_
*1219 _1074_
*1220 _1075_
*1221 _1076_
*1222 _1077_
*1223 _1078_
*1224 _1079_
*1225 _1080_
*1226 _1081_
*1227 _1082_
*1228 _1083_
*1229 _1084_
*1230 _1085_
*1231 _1086_
*1232 _1087_
*1233 _1088_
*1234 _1089_
*1235 _1090_
*1236 _1091_
*1237 _1092_
*1238 _1093_
*1239 _1094_
*1240 _1095_
*1241 _1096_
*1242 _1097_
*1243 _1098_
*1244 _1099_
*1245 _1100_
*1246 _1101_
*1247 _1102_
*1248 _1103_
*1249 _1104_
*1250 _1105_
*1251 _1106_
*1252 _1107_
*1253 _1108_
*1254 _1109_
*1255 _1110_
*1256 _1111_
*1257 _1112_
*1258 _1113_
*1259 _1114_
*1260 _1115_
*1261 _1116_
*1262 _1117_
*1263 _1118_
*1264 _1119_
*1265 _1120_
*1266 _1121_
*1267 _1122_
*1268 _1123_
*1269 _1124_
*1270 _1125_
*1271 _1126_
*1272 _1127_
*1273 _1128_
*1274 _1129_
*1275 _1130_
*1276 _1131_
*1277 _1132_
*1278 clk
*598 clknet_0_clk
*1304 clknet_4_0_0_clk
*1314 clknet_4_10_0_clk
*1315 clknet_4_11_0_clk
*1316 clknet_4_12_0_clk
*1317 clknet_4_13_0_clk
*1318 clknet_4_14_0_clk
*1319 clknet_4_15_0_clk
*1305 clknet_4_1_0_clk
*1306 clknet_4_2_0_clk
*1307 clknet_4_3_0_clk
*1308 clknet_4_4_0_clk
*1309 clknet_4_5_0_clk
*1310 clknet_4_6_0_clk
*1311 clknet_4_7_0_clk
*1312 clknet_4_8_0_clk
*1313 clknet_4_9_0_clk
*842 count[0]
*841 count[1]
*840 count[2]
*838 count[3]
*836 data_out[0]
*832 data_out[1]
*812 data_out[2]
*796 data_out[3]
*780 data_out[4]
*757 data_out[5]
*734 data_out[6]
*718 data_out[7]
*1 net1
*10 net10
*11 net11
*12 net12
*13 net13
*14 net14
*15 net15
*16 net16
*1291 net17
*1300 net18
*1279 net19
*2 net2
*1280 net20
*1281 net21
*1282 net22
*1283 net23
*1284 net24
*1285 net25
*1286 net26
*1287 net27
*1288 net28
*1289 net29
*3 net3
*1290 net30
*1292 net31
*1293 net32
*1294 net33
*1295 net34
*1296 net35
*1297 net36
*1298 net37
*1299 net38
*4 net4
*609 net45
*593 net46
*595 net47
*1303 net48
*1320 net49
*5 net5
*1321 net50
*1322 net51
*1323 net52
*1324 net53
*6 net6
*7 net7
*8 net8
*9 net9
*846 reset
*691 result[0]
*666 result[1]
*665 result[2]
*659 result[3]
*658 result[4]
*638 result[5]
*626 result[6]
*624 result[7]
*843 up_down
*2690 FILLER_0_1
*2694 FILLER_0_129
*2695 FILLER_0_161
*2696 FILLER_0_193
*2697 FILLER_0_225
*2698 FILLER_0_241
*2699 FILLER_0_249
*2700 FILLER_0_254
*2701 FILLER_0_286
*2702 FILLER_0_318
*2691 FILLER_0_33
*2703 FILLER_0_350
*2704 FILLER_0_382
*2705 FILLER_0_414
*2706 FILLER_0_446
*2707 FILLER_0_478
*2708 FILLER_0_510
*2709 FILLER_0_542
*2710 FILLER_0_574
*2711 FILLER_0_606
*2712 FILLER_0_622
*2713 FILLER_0_630
*2714 FILLER_0_632
*2692 FILLER_0_65
*2715 FILLER_0_664
*2716 FILLER_0_672
*2693 FILLER_0_97
*2938 FILLER_10_1
*2942 FILLER_10_129
*2943 FILLER_10_161
*2944 FILLER_10_193
*2945 FILLER_10_209
*2946 FILLER_10_217
*2947 FILLER_10_221
*2948 FILLER_10_226
*2949 FILLER_10_242
*2950 FILLER_10_250
*2951 FILLER_10_254
*2952 FILLER_10_286
*2953 FILLER_10_318
*2939 FILLER_10_33
*2954 FILLER_10_350
*2955 FILLER_10_382
*2956 FILLER_10_414
*2957 FILLER_10_446
*2958 FILLER_10_478
*2959 FILLER_10_510
*2960 FILLER_10_542
*2961 FILLER_10_574
*2962 FILLER_10_606
*2963 FILLER_10_622
*2964 FILLER_10_630
*2965 FILLER_10_632
*2940 FILLER_10_65
*2966 FILLER_10_664
*2967 FILLER_10_672
*2941 FILLER_10_97
*2968 FILLER_11_1
*2972 FILLER_11_129
*2973 FILLER_11_161
*2974 FILLER_11_193
*2975 FILLER_11_209
*2976 FILLER_11_220
*2977 FILLER_11_252
*2978 FILLER_11_273
*2979 FILLER_11_305
*2980 FILLER_11_321
*2981 FILLER_11_325
*2969 FILLER_11_33
*2982 FILLER_11_357
*2983 FILLER_11_389
*2984 FILLER_11_421
*2985 FILLER_11_453
*2986 FILLER_11_485
*2987 FILLER_11_501
*2988 FILLER_11_522
*2989 FILLER_11_554
*2990 FILLER_11_586
*2991 FILLER_11_618
*2970 FILLER_11_65
*2992 FILLER_11_650
*2993 FILLER_11_666
*2994 FILLER_11_670
*2995 FILLER_11_672
*2971 FILLER_11_97
*2996 FILLER_12_1
*3001 FILLER_12_117
*3002 FILLER_12_149
*3003 FILLER_12_181
*3004 FILLER_12_213
*3005 FILLER_12_245
*3006 FILLER_12_253
*3007 FILLER_12_262
*3008 FILLER_12_266
*3009 FILLER_12_268
*3010 FILLER_12_280
*3011 FILLER_12_312
*2997 FILLER_12_33
*3012 FILLER_12_344
*3013 FILLER_12_376
*3014 FILLER_12_402
*3015 FILLER_12_434
*3016 FILLER_12_466
*3017 FILLER_12_498
*3018 FILLER_12_506
*3019 FILLER_12_510
*3020 FILLER_12_519
*3021 FILLER_12_522
*3022 FILLER_12_554
*3023 FILLER_12_586
*3024 FILLER_12_618
*3025 FILLER_12_626
*3026 FILLER_12_630
*3027 FILLER_12_632
*2998 FILLER_12_65
*3028 FILLER_12_664
*3029 FILLER_12_672
*2999 FILLER_12_81
*3000 FILLER_12_85
*3030 FILLER_13_1
*3034 FILLER_13_129
*3035 FILLER_13_161
*3036 FILLER_13_193
*3037 FILLER_13_209
*3038 FILLER_13_217
*3039 FILLER_13_222
*3040 FILLER_13_260
*3041 FILLER_13_276
*3042 FILLER_13_283
*3043 FILLER_13_315
*3031 FILLER_13_33
*3044 FILLER_13_347
*3045 FILLER_13_379
*3046 FILLER_13_395
*3047 FILLER_13_403
*3048 FILLER_13_405
*3049 FILLER_13_410
*3050 FILLER_13_414
*3051 FILLER_13_439
*3052 FILLER_13_455
*3053 FILLER_13_470
*3054 FILLER_13_502
*3055 FILLER_13_510
*3056 FILLER_13_514
*3057 FILLER_13_516
*3058 FILLER_13_521
*3059 FILLER_13_553
*3060 FILLER_13_585
*3061 FILLER_13_617
*3062 FILLER_13_649
*3032 FILLER_13_65
*3063 FILLER_13_665
*3033 FILLER_13_97
*3064 FILLER_14_1
*3068 FILLER_14_129
*3069 FILLER_14_161
*3070 FILLER_14_193
*3071 FILLER_14_225
*3072 FILLER_14_257
*3073 FILLER_14_277
*3074 FILLER_14_309
*3065 FILLER_14_33
*3075 FILLER_14_341
*3076 FILLER_14_357
*3077 FILLER_14_361
*3078 FILLER_14_390
*3079 FILLER_14_398
*3080 FILLER_14_408
*3081 FILLER_14_440
*3082 FILLER_14_448
*3083 FILLER_14_475
*3084 FILLER_14_507
*3085 FILLER_14_539
*3086 FILLER_14_571
*3087 FILLER_14_603
*3088 FILLER_14_619
*3089 FILLER_14_627
*3090 FILLER_14_632
*3066 FILLER_14_65
*3091 FILLER_14_664
*3092 FILLER_14_672
*3067 FILLER_14_97
*3093 FILLER_15_1
*3097 FILLER_15_129
*3098 FILLER_15_161
*3099 FILLER_15_193
*3100 FILLER_15_209
*3101 FILLER_15_213
*3102 FILLER_15_237
*3103 FILLER_15_269
*3104 FILLER_15_277
*3105 FILLER_15_286
*3106 FILLER_15_302
*3107 FILLER_15_306
*3108 FILLER_15_311
*3094 FILLER_15_33
*3109 FILLER_15_343
*3110 FILLER_15_375
*3111 FILLER_15_383
*3112 FILLER_15_407
*3113 FILLER_15_415
*3114 FILLER_15_447
*3115 FILLER_15_479
*3116 FILLER_15_485
*3117 FILLER_15_489
*3118 FILLER_15_500
*3119 FILLER_15_508
*3120 FILLER_15_512
*3121 FILLER_15_525
*3122 FILLER_15_531
*3123 FILLER_15_563
*3124 FILLER_15_595
*3125 FILLER_15_627
*3095 FILLER_15_65
*3126 FILLER_15_659
*3127 FILLER_15_667
*3128 FILLER_15_671
*3096 FILLER_15_97
*3129 FILLER_16_1
*3133 FILLER_16_129
*3134 FILLER_16_161
*3135 FILLER_16_193
*3136 FILLER_16_209
*3137 FILLER_16_218
*3138 FILLER_16_250
*3139 FILLER_16_258
*3140 FILLER_16_260
*3141 FILLER_16_268
*3142 FILLER_16_276
*3143 FILLER_16_284
*3144 FILLER_16_286
*3145 FILLER_16_297
*3146 FILLER_16_329
*3130 FILLER_16_33
*3147 FILLER_16_345
*3148 FILLER_16_353
*3149 FILLER_16_357
*3150 FILLER_16_361
*3151 FILLER_16_393
*3152 FILLER_16_425
*3153 FILLER_16_457
*3154 FILLER_16_473
*3155 FILLER_16_494
*3156 FILLER_16_510
*3157 FILLER_16_514
*3158 FILLER_16_532
*3159 FILLER_16_564
*3160 FILLER_16_596
*3161 FILLER_16_628
*3162 FILLER_16_630
*3163 FILLER_16_632
*3131 FILLER_16_65
*3164 FILLER_16_664
*3165 FILLER_16_672
*3132 FILLER_16_97
*3166 FILLER_17_1
*3170 FILLER_17_129
*3171 FILLER_17_161
*3172 FILLER_17_193
*3173 FILLER_17_209
*3174 FILLER_17_217
*3175 FILLER_17_221
*3176 FILLER_17_223
*3177 FILLER_17_234
*3178 FILLER_17_236
*3179 FILLER_17_243
*3180 FILLER_17_250
*3181 FILLER_17_257
*3182 FILLER_17_259
*3183 FILLER_17_280
*3184 FILLER_17_312
*3167 FILLER_17_33
*3185 FILLER_17_344
*3186 FILLER_17_376
*3187 FILLER_17_408
*3188 FILLER_17_440
*3189 FILLER_17_472
*3190 FILLER_17_504
*3191 FILLER_17_536
*3192 FILLER_17_568
*3193 FILLER_17_600
*3194 FILLER_17_632
*3168 FILLER_17_65
*3195 FILLER_17_664
*3196 FILLER_17_672
*3169 FILLER_17_97
*3197 FILLER_18_1
*3201 FILLER_18_129
*3202 FILLER_18_161
*3203 FILLER_18_193
*3204 FILLER_18_201
*3205 FILLER_18_205
*3206 FILLER_18_207
*3207 FILLER_18_218
*3208 FILLER_18_226
*3209 FILLER_18_231
*3210 FILLER_18_263
*3211 FILLER_18_295
*3212 FILLER_18_298
*3198 FILLER_18_33
*3213 FILLER_18_330
*3214 FILLER_18_362
*3215 FILLER_18_394
*3216 FILLER_18_402
*3217 FILLER_18_428
*3218 FILLER_18_444
*3219 FILLER_18_461
*3220 FILLER_18_479
*3221 FILLER_18_511
*3222 FILLER_18_543
*3223 FILLER_18_575
*3224 FILLER_18_607
*3225 FILLER_18_623
*3226 FILLER_18_632
*3199 FILLER_18_65
*3227 FILLER_18_664
*3228 FILLER_18_672
*3200 FILLER_18_97
*3229 FILLER_19_1
*3233 FILLER_19_129
*3234 FILLER_19_161
*3235 FILLER_19_193
*3236 FILLER_19_209
*3237 FILLER_19_235
*3238 FILLER_19_267
*3239 FILLER_19_299
*3230 FILLER_19_33
*3240 FILLER_19_331
*3241 FILLER_19_347
*3242 FILLER_19_351
*3243 FILLER_19_370
*3244 FILLER_19_378
*3245 FILLER_19_382
*3246 FILLER_19_407
*3247 FILLER_19_412
*3248 FILLER_19_422
*3249 FILLER_19_454
*3250 FILLER_19_470
*3251 FILLER_19_478
*3252 FILLER_19_486
*3253 FILLER_19_529
*3254 FILLER_19_561
*3255 FILLER_19_593
*3256 FILLER_19_625
*3257 FILLER_19_641
*3258 FILLER_19_649
*3231 FILLER_19_65
*3259 FILLER_19_656
*3260 FILLER_19_672
*3232 FILLER_19_97
*2717 FILLER_1_1
*2721 FILLER_1_129
*2722 FILLER_1_161
*2723 FILLER_1_193
*2724 FILLER_1_225
*2725 FILLER_1_241
*2726 FILLER_1_249
*2727 FILLER_1_253
*2728 FILLER_1_285
*2729 FILLER_1_317
*2718 FILLER_1_33
*2730 FILLER_1_349
*2731 FILLER_1_381
*2732 FILLER_1_413
*2733 FILLER_1_445
*2734 FILLER_1_477
*2735 FILLER_1_509
*2736 FILLER_1_541
*2737 FILLER_1_573
*2738 FILLER_1_605
*2739 FILLER_1_637
*2719 FILLER_1_65
*2740 FILLER_1_669
*2720 FILLER_1_97
*3261 FILLER_20_1
*3268 FILLER_20_115
*3263 FILLER_20_13
*3269 FILLER_20_147
*3264 FILLER_20_15
*3270 FILLER_20_163
*3271 FILLER_20_171
*3272 FILLER_20_175
*3273 FILLER_20_185
*3265 FILLER_20_19
*3274 FILLER_20_217
*3275 FILLER_20_233
*3276 FILLER_20_241
*3277 FILLER_20_243
*3278 FILLER_20_261
*3279 FILLER_20_263
*3280 FILLER_20_274
*3281 FILLER_20_293
*3282 FILLER_20_297
*3283 FILLER_20_315
*3284 FILLER_20_347
*3285 FILLER_20_363
*3286 FILLER_20_371
*3287 FILLER_20_403
*3288 FILLER_20_411
*3289 FILLER_20_415
*3290 FILLER_20_419
*3291 FILLER_20_451
*3292 FILLER_20_483
*3293 FILLER_20_499
*3294 FILLER_20_507
*3295 FILLER_20_509
*3266 FILLER_20_51
*3296 FILLER_20_529
*3297 FILLER_20_561
*3298 FILLER_20_593
*3299 FILLER_20_625
*3300 FILLER_20_629
*3301 FILLER_20_632
*3302 FILLER_20_664
*3303 FILLER_20_672
*3267 FILLER_20_83
*3262 FILLER_20_9
*3304 FILLER_21_1
*3308 FILLER_21_129
*3309 FILLER_21_161
*3310 FILLER_21_177
*3311 FILLER_21_181
*3312 FILLER_21_186
*3313 FILLER_21_194
*3314 FILLER_21_198
*3315 FILLER_21_200
*3316 FILLER_21_204
*3317 FILLER_21_212
*3318 FILLER_21_216
*3319 FILLER_21_237
*3320 FILLER_21_241
*3321 FILLER_21_253
*3322 FILLER_21_257
*3323 FILLER_21_259
*3324 FILLER_21_262
*3325 FILLER_21_264
*3326 FILLER_21_289
*3327 FILLER_21_296
*3328 FILLER_21_299
*3329 FILLER_21_308
*3305 FILLER_21_33
*3330 FILLER_21_340
*3331 FILLER_21_372
*3332 FILLER_21_379
*3333 FILLER_21_395
*3334 FILLER_21_403
*3335 FILLER_21_405
*3336 FILLER_21_414
*3337 FILLER_21_433
*3338 FILLER_21_449
*3339 FILLER_21_464
*3340 FILLER_21_468
*3341 FILLER_21_471
*3342 FILLER_21_487
*3343 FILLER_21_495
*3344 FILLER_21_499
*3345 FILLER_21_517
*3346 FILLER_21_549
*3347 FILLER_21_581
*3348 FILLER_21_613
*3349 FILLER_21_645
*3306 FILLER_21_65
*3350 FILLER_21_661
*3351 FILLER_21_669
*3307 FILLER_21_97
*3352 FILLER_22_1
*3356 FILLER_22_129
*3357 FILLER_22_145
*3358 FILLER_22_156
*3359 FILLER_22_188
*3360 FILLER_22_192
*3361 FILLER_22_205
*3362 FILLER_22_237
*3363 FILLER_22_245
*3364 FILLER_22_249
*3365 FILLER_22_251
*3366 FILLER_22_254
*3367 FILLER_22_286
*3368 FILLER_22_290
*3369 FILLER_22_294
*3370 FILLER_22_298
*3371 FILLER_22_303
*3372 FILLER_22_311
*3373 FILLER_22_316
*3353 FILLER_22_33
*3374 FILLER_22_348
*3375 FILLER_22_352
*3376 FILLER_22_359
*3377 FILLER_22_363
*3378 FILLER_22_370
*3379 FILLER_22_386
*3380 FILLER_22_394
*3381 FILLER_22_400
*3382 FILLER_22_408
*3383 FILLER_22_414
*3384 FILLER_22_423
*3385 FILLER_22_439
*3386 FILLER_22_447
*3387 FILLER_22_451
*3388 FILLER_22_453
*3389 FILLER_22_471
*3390 FILLER_22_476
*3391 FILLER_22_480
*3392 FILLER_22_485
*3393 FILLER_22_493
*3394 FILLER_22_495
*3395 FILLER_22_508
*3396 FILLER_22_540
*3397 FILLER_22_572
*3398 FILLER_22_604
*3399 FILLER_22_620
*3400 FILLER_22_628
*3401 FILLER_22_630
*3402 FILLER_22_632
*3354 FILLER_22_65
*3403 FILLER_22_664
*3404 FILLER_22_672
*3355 FILLER_22_97
*3405 FILLER_23_1
*3409 FILLER_23_113
*3410 FILLER_23_131
*3411 FILLER_23_139
*3412 FILLER_23_143
*3413 FILLER_23_152
*3414 FILLER_23_184
*3415 FILLER_23_216
*3416 FILLER_23_248
*3417 FILLER_23_269
*3418 FILLER_23_301
*3406 FILLER_23_33
*3419 FILLER_23_333
*3420 FILLER_23_365
*3421 FILLER_23_381
*3422 FILLER_23_389
*3423 FILLER_23_393
*3424 FILLER_23_395
*3425 FILLER_23_404
*3426 FILLER_23_416
*3427 FILLER_23_448
*3428 FILLER_23_480
*3429 FILLER_23_512
*3430 FILLER_23_544
*3431 FILLER_23_576
*3432 FILLER_23_608
*3433 FILLER_23_640
*3407 FILLER_23_65
*3434 FILLER_23_672
*3408 FILLER_23_97
*3435 FILLER_24_1
*3440 FILLER_24_103
*3441 FILLER_24_116
*3442 FILLER_24_120
*3443 FILLER_24_124
*3444 FILLER_24_140
*3445 FILLER_24_148
*3446 FILLER_24_154
*3447 FILLER_24_186
*3448 FILLER_24_218
*3449 FILLER_24_250
*3450 FILLER_24_271
*3451 FILLER_24_303
*3452 FILLER_24_320
*3453 FILLER_24_324
*3436 FILLER_24_33
*3454 FILLER_24_356
*3455 FILLER_24_364
*3456 FILLER_24_371
*3457 FILLER_24_379
*3458 FILLER_24_383
*3459 FILLER_24_385
*3460 FILLER_24_389
*3461 FILLER_24_397
*3462 FILLER_24_399
*3463 FILLER_24_410
*3464 FILLER_24_442
*3465 FILLER_24_474
*3466 FILLER_24_481
*3467 FILLER_24_513
*3468 FILLER_24_521
*3469 FILLER_24_525
*3470 FILLER_24_532
*3471 FILLER_24_550
*3472 FILLER_24_558
*3473 FILLER_24_565
*3474 FILLER_24_597
*3475 FILLER_24_629
*3476 FILLER_24_632
*3437 FILLER_24_65
*3477 FILLER_24_664
*3478 FILLER_24_672
*3438 FILLER_24_81
*3439 FILLER_24_89
*3479 FILLER_25_1
*3489 FILLER_25_113
*3490 FILLER_25_121
*3491 FILLER_25_137
*3492 FILLER_25_145
*3493 FILLER_25_149
*3494 FILLER_25_158
*3495 FILLER_25_190
*3496 FILLER_25_216
*3497 FILLER_25_248
*3498 FILLER_25_264
*3499 FILLER_25_268
*3500 FILLER_25_294
*3501 FILLER_25_302
*3480 FILLER_25_33
*3502 FILLER_25_330
*3503 FILLER_25_346
*3481 FILLER_25_35
*3504 FILLER_25_354
*3505 FILLER_25_358
*3506 FILLER_25_383
*3507 FILLER_25_402
*3508 FILLER_25_434
*3482 FILLER_25_45
*3509 FILLER_25_466
*3510 FILLER_25_498
*3511 FILLER_25_530
*3512 FILLER_25_535
*3513 FILLER_25_543
*3514 FILLER_25_545
*3515 FILLER_25_566
*3483 FILLER_25_58
*3516 FILLER_25_598
*3517 FILLER_25_630
*3484 FILLER_25_66
*3518 FILLER_25_662
*3519 FILLER_25_670
*3520 FILLER_25_672
*3485 FILLER_25_70
*3486 FILLER_25_78
*3487 FILLER_25_82
*3488 FILLER_25_97
*3521 FILLER_26_1
*3531 FILLER_26_108
*3532 FILLER_26_116
*3533 FILLER_26_120
*3534 FILLER_26_130
*3535 FILLER_26_132
*3536 FILLER_26_140
*3537 FILLER_26_167
*3522 FILLER_26_17
*3538 FILLER_26_182
*3539 FILLER_26_214
*3540 FILLER_26_230
*3541 FILLER_26_243
*3523 FILLER_26_25
*3542 FILLER_26_259
*3524 FILLER_26_29
*3543 FILLER_26_291
*3525 FILLER_26_31
*3544 FILLER_26_323
*3545 FILLER_26_355
*3546 FILLER_26_387
*3526 FILLER_26_41
*3547 FILLER_26_419
*3548 FILLER_26_451
*3549 FILLER_26_467
*3550 FILLER_26_471
*3551 FILLER_26_473
*3552 FILLER_26_477
*3553 FILLER_26_509
*3554 FILLER_26_512
*3555 FILLER_26_528
*3556 FILLER_26_536
*3557 FILLER_26_543
*3558 FILLER_26_551
*3559 FILLER_26_555
*3560 FILLER_26_562
*3561 FILLER_26_594
*3562 FILLER_26_626
*3563 FILLER_26_630
*3564 FILLER_26_632
*3565 FILLER_26_648
*3566 FILLER_26_667
*3567 FILLER_26_671
*3527 FILLER_26_73
*3528 FILLER_26_79
*3529 FILLER_26_84
*3530 FILLER_26_92
*3568 FILLER_27_1
*3576 FILLER_27_106
*3577 FILLER_27_114
*3578 FILLER_27_121
*3579 FILLER_27_153
*3580 FILLER_27_157
*3581 FILLER_27_163
*3582 FILLER_27_165
*3583 FILLER_27_173
*3584 FILLER_27_182
*3585 FILLER_27_214
*3586 FILLER_27_222
*3587 FILLER_27_226
*3588 FILLER_27_244
*3589 FILLER_27_276
*3590 FILLER_27_308
*3569 FILLER_27_33
*3591 FILLER_27_340
*3592 FILLER_27_372
*3593 FILLER_27_404
*3594 FILLER_27_436
*3595 FILLER_27_444
*3596 FILLER_27_452
*3597 FILLER_27_455
*3598 FILLER_27_471
*3599 FILLER_27_478
*3600 FILLER_27_482
*3601 FILLER_27_487
*3602 FILLER_27_495
*3603 FILLER_27_519
*3604 FILLER_27_535
*3605 FILLER_27_537
*3606 FILLER_27_547
*3607 FILLER_27_551
*3608 FILLER_27_583
*3609 FILLER_27_615
*3610 FILLER_27_647
*3570 FILLER_27_65
*3611 FILLER_27_668
*3612 FILLER_27_672
*3571 FILLER_27_73
*3572 FILLER_27_77
*3573 FILLER_27_81
*3574 FILLER_27_85
*3575 FILLER_27_90
*3613 FILLER_28_1
*3628 FILLER_28_102
*3629 FILLER_28_110
*3630 FILLER_28_115
*3631 FILLER_28_138
*3632 FILLER_28_154
*3633 FILLER_28_162
*3634 FILLER_28_166
*3635 FILLER_28_186
*3636 FILLER_28_218
*3637 FILLER_28_250
*3638 FILLER_28_282
*3615 FILLER_28_30
*3639 FILLER_28_314
*3640 FILLER_28_318
*3641 FILLER_28_322
*3642 FILLER_28_338
*3616 FILLER_28_34
*3643 FILLER_28_346
*3644 FILLER_28_374
*3645 FILLER_28_379
*3646 FILLER_28_391
*3647 FILLER_28_393
*3648 FILLER_28_402
*3649 FILLER_28_410
*3617 FILLER_28_42
*3650 FILLER_28_438
*3618 FILLER_28_44
*3651 FILLER_28_442
*3652 FILLER_28_444
*3653 FILLER_28_462
*3654 FILLER_28_478
*3655 FILLER_28_482
*3656 FILLER_28_485
*3619 FILLER_28_49
*3657 FILLER_28_501
*3620 FILLER_28_51
*3658 FILLER_28_526
*3621 FILLER_28_55
*3659 FILLER_28_558
*3660 FILLER_28_590
*3661 FILLER_28_594
*3662 FILLER_28_596
*3663 FILLER_28_600
*3664 FILLER_28_618
*3665 FILLER_28_626
*3666 FILLER_28_630
*3667 FILLER_28_632
*3668 FILLER_28_664
*3669 FILLER_28_666
*3622 FILLER_28_71
*3623 FILLER_28_73
*3624 FILLER_28_78
*3625 FILLER_28_86
*3614 FILLER_28_9
*3626 FILLER_28_90
*3627 FILLER_28_98
*3677 FILLER_29_108
*3678 FILLER_29_110
*3679 FILLER_29_116
*3680 FILLER_29_124
*3681 FILLER_29_129
*3682 FILLER_29_136
*3683 FILLER_29_152
*3684 FILLER_29_161
*3685 FILLER_29_169
*3686 FILLER_29_173
*3687 FILLER_29_184
*3671 FILLER_29_20
*3688 FILLER_29_216
*3689 FILLER_29_224
*3690 FILLER_29_228
*3691 FILLER_29_236
*3692 FILLER_29_248
*3672 FILLER_29_27
*3693 FILLER_29_280
*3694 FILLER_29_288
*3695 FILLER_29_292
*3696 FILLER_29_296
*3697 FILLER_29_298
*3698 FILLER_29_305
*3699 FILLER_29_313
*3700 FILLER_29_315
*3701 FILLER_29_323
*3702 FILLER_29_355
*3703 FILLER_29_371
*3704 FILLER_29_375
*3705 FILLER_29_398
*3670 FILLER_29_4
*3706 FILLER_29_430
*3707 FILLER_29_441
*3708 FILLER_29_473
*3709 FILLER_29_505
*3710 FILLER_29_513
*3711 FILLER_29_523
*3712 FILLER_29_539
*3713 FILLER_29_543
*3714 FILLER_29_571
*3715 FILLER_29_587
*3673 FILLER_29_59
*3716 FILLER_29_595
*3717 FILLER_29_599
*3718 FILLER_29_615
*3719 FILLER_29_623
*3720 FILLER_29_627
*3721 FILLER_29_629
*3722 FILLER_29_647
*3723 FILLER_29_663
*3674 FILLER_29_67
*3724 FILLER_29_671
*3675 FILLER_29_71
*3676 FILLER_29_76
*2741 FILLER_2_1
*2745 FILLER_2_129
*2746 FILLER_2_161
*2747 FILLER_2_193
*2748 FILLER_2_225
*2749 FILLER_2_241
*2750 FILLER_2_249
*2751 FILLER_2_254
*2752 FILLER_2_286
*2753 FILLER_2_318
*2742 FILLER_2_33
*2754 FILLER_2_350
*2755 FILLER_2_382
*2756 FILLER_2_414
*2757 FILLER_2_446
*2758 FILLER_2_478
*2759 FILLER_2_510
*2760 FILLER_2_542
*2761 FILLER_2_574
*2762 FILLER_2_606
*2763 FILLER_2_622
*2764 FILLER_2_630
*2765 FILLER_2_632
*2743 FILLER_2_65
*2766 FILLER_2_664
*2767 FILLER_2_672
*2744 FILLER_2_97
*3725 FILLER_30_1
*3730 FILLER_30_111
*3731 FILLER_30_127
*3732 FILLER_30_129
*3733 FILLER_30_133
*3734 FILLER_30_149
*3735 FILLER_30_160
*3736 FILLER_30_192
*3737 FILLER_30_224
*3738 FILLER_30_226
*3739 FILLER_30_244
*3740 FILLER_30_276
*3741 FILLER_30_292
*3742 FILLER_30_310
*3726 FILLER_30_33
*3743 FILLER_30_342
*3744 FILLER_30_374
*3745 FILLER_30_379
*3746 FILLER_30_381
*3747 FILLER_30_387
*3748 FILLER_30_419
*3749 FILLER_30_435
*3750 FILLER_30_443
*3751 FILLER_30_450
*3752 FILLER_30_482
*3753 FILLER_30_498
*3754 FILLER_30_507
*3755 FILLER_30_515
*3756 FILLER_30_519
*3757 FILLER_30_521
*3758 FILLER_30_525
*3759 FILLER_30_533
*3760 FILLER_30_537
*3761 FILLER_30_539
*3762 FILLER_30_543
*3763 FILLER_30_575
*3764 FILLER_30_591
*3765 FILLER_30_599
*3766 FILLER_30_601
*3767 FILLER_30_609
*3768 FILLER_30_625
*3769 FILLER_30_629
*3770 FILLER_30_632
*3771 FILLER_30_640
*3727 FILLER_30_65
*3772 FILLER_30_650
*3773 FILLER_30_666
*3774 FILLER_30_670
*3775 FILLER_30_672
*3728 FILLER_30_69
*3729 FILLER_30_79
*3776 FILLER_31_1
*3779 FILLER_31_11
*3785 FILLER_31_124
*3786 FILLER_31_140
*3787 FILLER_31_144
*3788 FILLER_31_160
*3789 FILLER_31_176
*3790 FILLER_31_183
*3780 FILLER_31_19
*3791 FILLER_31_215
*3781 FILLER_31_23
*3792 FILLER_31_247
*3793 FILLER_31_255
*3794 FILLER_31_259
*3795 FILLER_31_264
*3796 FILLER_31_268
*3797 FILLER_31_275
*3782 FILLER_31_28
*3798 FILLER_31_291
*3799 FILLER_31_299
*3800 FILLER_31_303
*3801 FILLER_31_305
*3802 FILLER_31_308
*3803 FILLER_31_332
*3804 FILLER_31_364
*3805 FILLER_31_380
*3806 FILLER_31_385
*3807 FILLER_31_417
*3808 FILLER_31_433
*3809 FILLER_31_441
*3810 FILLER_31_457
*3811 FILLER_31_465
*3812 FILLER_31_469
*3813 FILLER_31_497
*3777 FILLER_31_5
*3814 FILLER_31_501
*3815 FILLER_31_504
*3816 FILLER_31_508
*3817 FILLER_31_514
*3818 FILLER_31_527
*3819 FILLER_31_559
*3820 FILLER_31_591
*3783 FILLER_31_60
*3821 FILLER_31_623
*3822 FILLER_31_655
*3823 FILLER_31_659
*3824 FILLER_31_664
*3825 FILLER_31_672
*3778 FILLER_31_7
*3784 FILLER_31_92
*3826 FILLER_32_1
*3841 FILLER_32_105
*3842 FILLER_32_121
*3843 FILLER_32_129
*3844 FILLER_32_136
*3845 FILLER_32_168
*3827 FILLER_32_17
*3846 FILLER_32_200
*3847 FILLER_32_204
*3828 FILLER_32_21
*3848 FILLER_32_211
*3849 FILLER_32_215
*3850 FILLER_32_228
*3829 FILLER_32_23
*3851 FILLER_32_260
*3830 FILLER_32_27
*3852 FILLER_32_279
*3853 FILLER_32_295
*3854 FILLER_32_300
*3855 FILLER_32_304
*3831 FILLER_32_31
*3856 FILLER_32_311
*3857 FILLER_32_330
*3858 FILLER_32_346
*3859 FILLER_32_377
*3860 FILLER_32_381
*3832 FILLER_32_39
*3861 FILLER_32_402
*3862 FILLER_32_406
*3863 FILLER_32_412
*3864 FILLER_32_420
*3865 FILLER_32_429
*3833 FILLER_32_43
*3866 FILLER_32_436
*3867 FILLER_32_442
*3834 FILLER_32_45
*3868 FILLER_32_474
*3869 FILLER_32_490
*3870 FILLER_32_497
*3835 FILLER_32_50
*3871 FILLER_32_513
*3872 FILLER_32_517
*3836 FILLER_32_52
*3873 FILLER_32_522
*3874 FILLER_32_554
*3875 FILLER_32_562
*3876 FILLER_32_566
*3837 FILLER_32_57
*3877 FILLER_32_573
*3878 FILLER_32_605
*3879 FILLER_32_621
*3880 FILLER_32_629
*3881 FILLER_32_632
*3882 FILLER_32_642
*3838 FILLER_32_65
*3883 FILLER_32_658
*3884 FILLER_32_666
*3885 FILLER_32_670
*3886 FILLER_32_672
*3839 FILLER_32_69
*3840 FILLER_32_73
*3887 FILLER_33_1
*3903 FILLER_33_100
*3904 FILLER_33_107
*3905 FILLER_33_113
*3906 FILLER_33_118
*3889 FILLER_33_13
*3907 FILLER_33_134
*3908 FILLER_33_142
*3909 FILLER_33_149
*3910 FILLER_33_165
*3911 FILLER_33_180
*3912 FILLER_33_196
*3913 FILLER_33_204
*3914 FILLER_33_211
*3915 FILLER_33_243
*3916 FILLER_33_275
*3890 FILLER_33_29
*3917 FILLER_33_291
*3918 FILLER_33_299
*3919 FILLER_33_303
*3920 FILLER_33_305
*3921 FILLER_33_311
*3922 FILLER_33_343
*3923 FILLER_33_351
*3924 FILLER_33_358
*3891 FILLER_33_37
*3925 FILLER_33_374
*3926 FILLER_33_382
*3927 FILLER_33_391
*3892 FILLER_33_41
*3928 FILLER_33_423
*3929 FILLER_33_425
*3893 FILLER_33_43
*3930 FILLER_33_443
*3931 FILLER_33_475
*3894 FILLER_33_48
*3932 FILLER_33_491
*3933 FILLER_33_497
*3934 FILLER_33_513
*3895 FILLER_33_52
*3935 FILLER_33_521
*3936 FILLER_33_526
*3937 FILLER_33_558
*3896 FILLER_33_57
*3938 FILLER_33_577
*3939 FILLER_33_579
*3940 FILLER_33_584
*3941 FILLER_33_588
*3942 FILLER_33_590
*3943 FILLER_33_600
*3944 FILLER_33_602
*3945 FILLER_33_608
*3946 FILLER_33_612
*3947 FILLER_33_614
*3948 FILLER_33_618
*3949 FILLER_33_626
*3950 FILLER_33_628
*3951 FILLER_33_632
*3952 FILLER_33_639
*3953 FILLER_33_671
*3897 FILLER_33_68
*3898 FILLER_33_76
*3899 FILLER_33_80
*3900 FILLER_33_82
*3888 FILLER_33_9
*3901 FILLER_33_90
*3902 FILLER_33_98
*3954 FILLER_34_1
*3960 FILLER_34_112
*3961 FILLER_34_116
*3962 FILLER_34_132
*3963 FILLER_34_136
*3964 FILLER_34_142
*3965 FILLER_34_174
*3966 FILLER_34_178
*3967 FILLER_34_180
*3968 FILLER_34_187
*3969 FILLER_34_195
*3970 FILLER_34_197
*3971 FILLER_34_207
*3972 FILLER_34_211
*3973 FILLER_34_217
*3974 FILLER_34_249
*3975 FILLER_34_265
*3976 FILLER_34_273
*3977 FILLER_34_277
*3978 FILLER_34_295
*3979 FILLER_34_311
*3980 FILLER_34_313
*3981 FILLER_34_317
*3955 FILLER_34_33
*3982 FILLER_34_349
*3983 FILLER_34_381
*3984 FILLER_34_413
*3985 FILLER_34_445
*3986 FILLER_34_477
*3956 FILLER_34_49
*3987 FILLER_34_509
*3988 FILLER_34_526
*3989 FILLER_34_558
*3990 FILLER_34_560
*3991 FILLER_34_567
*3992 FILLER_34_573
*3993 FILLER_34_577
*3994 FILLER_34_585
*3995 FILLER_34_606
*3996 FILLER_34_632
*3997 FILLER_34_664
*3998 FILLER_34_672
*3957 FILLER_34_72
*3958 FILLER_34_80
*3959 FILLER_34_96
*4002 FILLER_35_103
*4003 FILLER_35_135
*4004 FILLER_35_139
*4005 FILLER_35_148
*4006 FILLER_35_156
*4007 FILLER_35_168
*4008 FILLER_35_172
*4009 FILLER_35_180
*4010 FILLER_35_195
*4011 FILLER_35_200
*4012 FILLER_35_232
*4013 FILLER_35_264
*4014 FILLER_35_268
*4015 FILLER_35_274
*4016 FILLER_35_282
*4017 FILLER_35_284
*4018 FILLER_35_294
*4019 FILLER_35_310
*4020 FILLER_35_321
*4021 FILLER_35_328
*4022 FILLER_35_360
*4000 FILLER_35_39
*4023 FILLER_35_392
*4024 FILLER_35_403
*4025 FILLER_35_435
*4026 FILLER_35_439
*4027 FILLER_35_441
*4028 FILLER_35_445
*4029 FILLER_35_461
*4030 FILLER_35_471
*4031 FILLER_35_475
*4032 FILLER_35_483
*4033 FILLER_35_485
*4034 FILLER_35_503
*4035 FILLER_35_525
*4036 FILLER_35_545
*4037 FILLER_35_561
*4038 FILLER_35_565
*4039 FILLER_35_567
*4040 FILLER_35_573
*4041 FILLER_35_580
*4042 FILLER_35_612
*4043 FILLER_35_644
*4044 FILLER_35_660
*4045 FILLER_35_664
*4046 FILLER_35_668
*4047 FILLER_35_672
*3999 FILLER_35_7
*4001 FILLER_35_71
*4048 FILLER_36_1
*4055 FILLER_36_117
*4056 FILLER_36_133
*4057 FILLER_36_153
*4058 FILLER_36_169
*4049 FILLER_36_17
*4059 FILLER_36_177
*4060 FILLER_36_192
*4061 FILLER_36_224
*4062 FILLER_36_240
*4063 FILLER_36_244
*4050 FILLER_36_25
*4064 FILLER_36_269
*4051 FILLER_36_30
*4065 FILLER_36_301
*4066 FILLER_36_329
*4067 FILLER_36_364
*4068 FILLER_36_383
*4069 FILLER_36_387
*4070 FILLER_36_391
*4071 FILLER_36_423
*4072 FILLER_36_425
*4073 FILLER_36_429
*4074 FILLER_36_445
*4075 FILLER_36_453
*4076 FILLER_36_457
*4077 FILLER_36_476
*4078 FILLER_36_480
*4079 FILLER_36_482
*4080 FILLER_36_487
*4081 FILLER_36_489
*4082 FILLER_36_499
*4083 FILLER_36_503
*4084 FILLER_36_525
*4085 FILLER_36_557
*4086 FILLER_36_565
*4087 FILLER_36_567
*4088 FILLER_36_570
*4089 FILLER_36_586
*4090 FILLER_36_594
*4091 FILLER_36_602
*4092 FILLER_36_610
*4093 FILLER_36_614
*4094 FILLER_36_618
*4052 FILLER_36_62
*4095 FILLER_36_626
*4096 FILLER_36_630
*4097 FILLER_36_632
*4098 FILLER_36_636
*4099 FILLER_36_638
*4100 FILLER_36_656
*4101 FILLER_36_672
*4053 FILLER_36_78
*4054 FILLER_36_82
*4102 FILLER_37_1
*4113 FILLER_37_105
*4114 FILLER_37_107
*4115 FILLER_37_118
*4116 FILLER_37_123
*4117 FILLER_37_131
*4118 FILLER_37_145
*4103 FILLER_37_17
*4119 FILLER_37_177
*4120 FILLER_37_181
*4121 FILLER_37_187
*4104 FILLER_37_21
*4122 FILLER_37_219
*4123 FILLER_37_254
*4124 FILLER_37_262
*4125 FILLER_37_266
*4105 FILLER_37_27
*4126 FILLER_37_271
*4127 FILLER_37_287
*4128 FILLER_37_297
*4129 FILLER_37_305
*4130 FILLER_37_309
*4131 FILLER_37_312
*4106 FILLER_37_33
*4132 FILLER_37_344
*4107 FILLER_37_37
*4133 FILLER_37_376
*4134 FILLER_37_380
*4135 FILLER_37_399
*4108 FILLER_37_41
*4136 FILLER_37_431
*4137 FILLER_37_463
*4138 FILLER_37_495
*4139 FILLER_37_527
*4140 FILLER_37_559
*4141 FILLER_37_567
*4142 FILLER_37_571
*4143 FILLER_37_603
*4144 FILLER_37_635
*4145 FILLER_37_654
*4146 FILLER_37_670
*4147 FILLER_37_672
*4109 FILLER_37_73
*4110 FILLER_37_77
*4111 FILLER_37_81
*4112 FILLER_37_97
*4148 FILLER_38_1
*4158 FILLER_38_134
*4159 FILLER_38_142
*4160 FILLER_38_174
*4161 FILLER_38_206
*4150 FILLER_38_21
*4162 FILLER_38_238
*4151 FILLER_38_25
*4163 FILLER_38_270
*4152 FILLER_38_29
*4164 FILLER_38_302
*4165 FILLER_38_334
*4166 FILLER_38_366
*4167 FILLER_38_382
*4168 FILLER_38_386
*4169 FILLER_38_388
*4170 FILLER_38_392
*4171 FILLER_38_397
*4172 FILLER_38_402
*4153 FILLER_38_41
*4173 FILLER_38_430
*4174 FILLER_38_462
*4175 FILLER_38_494
*4176 FILLER_38_526
*4177 FILLER_38_530
*4178 FILLER_38_532
*4179 FILLER_38_542
*4180 FILLER_38_560
*4154 FILLER_38_57
*4181 FILLER_38_576
*4182 FILLER_38_584
*4183 FILLER_38_588
*4184 FILLER_38_616
*4185 FILLER_38_621
*4186 FILLER_38_629
*4187 FILLER_38_632
*4155 FILLER_38_65
*4188 FILLER_38_656
*4189 FILLER_38_672
*4156 FILLER_38_69
*4157 FILLER_38_85
*4149 FILLER_38_9
*4190 FILLER_39_1
*4191 FILLER_39_12
*4202 FILLER_39_126
*4203 FILLER_39_158
*4204 FILLER_39_190
*4205 FILLER_39_199
*4192 FILLER_39_20
*4193 FILLER_39_22
*4206 FILLER_39_231
*4207 FILLER_39_235
*4208 FILLER_39_243
*4209 FILLER_39_250
*4210 FILLER_39_282
*4211 FILLER_39_290
*4194 FILLER_39_31
*4212 FILLER_39_311
*4213 FILLER_39_343
*4214 FILLER_39_359
*4195 FILLER_39_36
*4215 FILLER_39_367
*4216 FILLER_39_385
*4217 FILLER_39_389
*4218 FILLER_39_391
*4219 FILLER_39_396
*4220 FILLER_39_405
*4221 FILLER_39_424
*4222 FILLER_39_428
*4223 FILLER_39_433
*4224 FILLER_39_435
*4225 FILLER_39_441
*4226 FILLER_39_473
*4227 FILLER_39_475
*4228 FILLER_39_484
*4229 FILLER_39_488
*4230 FILLER_39_490
*4231 FILLER_39_494
*4196 FILLER_39_52
*4232 FILLER_39_526
*4233 FILLER_39_530
*4234 FILLER_39_534
*4235 FILLER_39_566
*4236 FILLER_39_577
*4237 FILLER_39_585
*4238 FILLER_39_593
*4239 FILLER_39_595
*4197 FILLER_39_60
*4240 FILLER_39_604
*4241 FILLER_39_636
*4242 FILLER_39_668
*4243 FILLER_39_672
*4198 FILLER_39_69
*4199 FILLER_39_75
*4200 FILLER_39_83
*4201 FILLER_39_94
*2768 FILLER_3_1
*2772 FILLER_3_129
*2773 FILLER_3_161
*2774 FILLER_3_193
*2775 FILLER_3_225
*2776 FILLER_3_241
*2777 FILLER_3_249
*2778 FILLER_3_253
*2779 FILLER_3_285
*2780 FILLER_3_317
*2769 FILLER_3_33
*2781 FILLER_3_349
*2782 FILLER_3_381
*2783 FILLER_3_413
*2784 FILLER_3_445
*2785 FILLER_3_477
*2786 FILLER_3_509
*2787 FILLER_3_541
*2788 FILLER_3_573
*2789 FILLER_3_605
*2790 FILLER_3_637
*2770 FILLER_3_65
*2791 FILLER_3_669
*2771 FILLER_3_97
*4244 FILLER_40_1
*4256 FILLER_40_130
*4257 FILLER_40_162
*4245 FILLER_40_17
*4258 FILLER_40_197
*4259 FILLER_40_229
*4260 FILLER_40_231
*4261 FILLER_40_249
*4246 FILLER_40_25
*4262 FILLER_40_253
*4263 FILLER_40_255
*4264 FILLER_40_260
*4247 FILLER_40_27
*4265 FILLER_40_292
*4248 FILLER_40_31
*4266 FILLER_40_313
*4267 FILLER_40_321
*4268 FILLER_40_325
*4269 FILLER_40_330
*4270 FILLER_40_362
*4271 FILLER_40_394
*4272 FILLER_40_426
*4273 FILLER_40_430
*4274 FILLER_40_432
*4275 FILLER_40_442
*4276 FILLER_40_458
*4277 FILLER_40_462
*4249 FILLER_40_47
*4278 FILLER_40_485
*4279 FILLER_40_495
*4280 FILLER_40_527
*4281 FILLER_40_534
*4250 FILLER_40_55
*4282 FILLER_40_566
*4283 FILLER_40_584
*4251 FILLER_40_59
*4284 FILLER_40_616
*4285 FILLER_40_624
*4286 FILLER_40_628
*4287 FILLER_40_630
*4288 FILLER_40_632
*4289 FILLER_40_664
*4290 FILLER_40_672
*4252 FILLER_40_80
*4253 FILLER_40_88
*4254 FILLER_40_93
*4255 FILLER_40_98
*4291 FILLER_41_1
*4298 FILLER_41_114
*4299 FILLER_41_119
*4300 FILLER_41_127
*4301 FILLER_41_137
*4302 FILLER_41_141
*4303 FILLER_41_147
*4304 FILLER_41_155
*4292 FILLER_41_17
*4305 FILLER_41_173
*4306 FILLER_41_181
*4307 FILLER_41_185
*4308 FILLER_41_193
*4309 FILLER_41_199
*4310 FILLER_41_206
*4311 FILLER_41_238
*4293 FILLER_41_25
*4312 FILLER_41_254
*4313 FILLER_41_262
*4314 FILLER_41_264
*4315 FILLER_41_271
*4316 FILLER_41_275
*4317 FILLER_41_280
*4294 FILLER_41_29
*4318 FILLER_41_296
*4319 FILLER_41_300
*4320 FILLER_41_304
*4321 FILLER_41_313
*4322 FILLER_41_317
*4323 FILLER_41_321
*4324 FILLER_41_331
*4295 FILLER_41_34
*4325 FILLER_41_363
*4326 FILLER_41_371
*4327 FILLER_41_375
*4328 FILLER_41_393
*4329 FILLER_41_397
*4330 FILLER_41_402
*4331 FILLER_41_418
*4332 FILLER_41_426
*4333 FILLER_41_428
*4334 FILLER_41_446
*4335 FILLER_41_478
*4336 FILLER_41_486
*4337 FILLER_41_490
*4338 FILLER_41_494
*4339 FILLER_41_526
*4340 FILLER_41_535
*4341 FILLER_41_567
*4342 FILLER_41_599
*4343 FILLER_41_634
*4296 FILLER_41_66
*4344 FILLER_41_666
*4345 FILLER_41_670
*4346 FILLER_41_672
*4297 FILLER_41_98
*4347 FILLER_42_1
*4353 FILLER_42_105
*4354 FILLER_42_137
*4355 FILLER_42_143
*4356 FILLER_42_159
*4357 FILLER_42_162
*4358 FILLER_42_170
*4359 FILLER_42_174
*4360 FILLER_42_189
*4361 FILLER_42_221
*4350 FILLER_42_23
*4362 FILLER_42_253
*4363 FILLER_42_261
*4364 FILLER_42_263
*4365 FILLER_42_281
*4348 FILLER_42_3
*4366 FILLER_42_313
*4367 FILLER_42_331
*4368 FILLER_42_363
*4369 FILLER_42_379
*4370 FILLER_42_383
*4371 FILLER_42_387
*4372 FILLER_42_391
*4351 FILLER_42_41
*4373 FILLER_42_423
*4374 FILLER_42_431
*4375 FILLER_42_433
*4376 FILLER_42_437
*4377 FILLER_42_469
*4378 FILLER_42_501
*4379 FILLER_42_505
*4380 FILLER_42_507
*4381 FILLER_42_513
*4382 FILLER_42_529
*4383 FILLER_42_537
*4384 FILLER_42_541
*4385 FILLER_42_573
*4386 FILLER_42_605
*4387 FILLER_42_609
*4388 FILLER_42_638
*4389 FILLER_42_670
*4390 FILLER_42_672
*4349 FILLER_42_7
*4352 FILLER_42_73
*4391 FILLER_43_1
*4399 FILLER_43_119
*4400 FILLER_43_135
*4401 FILLER_43_137
*4402 FILLER_43_152
*4403 FILLER_43_168
*4392 FILLER_43_17
*4404 FILLER_43_172
*4405 FILLER_43_176
*4406 FILLER_43_180
*4407 FILLER_43_187
*4408 FILLER_43_194
*4409 FILLER_43_226
*4393 FILLER_43_25
*4410 FILLER_43_258
*4394 FILLER_43_29
*4411 FILLER_43_290
*4412 FILLER_43_322
*4395 FILLER_43_33
*4413 FILLER_43_354
*4414 FILLER_43_358
*4396 FILLER_43_37
*4415 FILLER_43_390
*4416 FILLER_43_406
*4417 FILLER_43_414
*4418 FILLER_43_418
*4419 FILLER_43_437
*4420 FILLER_43_469
*4421 FILLER_43_473
*4422 FILLER_43_477
*4423 FILLER_43_485
*4424 FILLER_43_511
*4425 FILLER_43_517
*4426 FILLER_43_519
*4427 FILLER_43_523
*4428 FILLER_43_555
*4429 FILLER_43_587
*4430 FILLER_43_603
*4431 FILLER_43_607
*4432 FILLER_43_611
*4433 FILLER_43_627
*4434 FILLER_43_654
*4435 FILLER_43_670
*4436 FILLER_43_672
*4397 FILLER_43_69
*4398 FILLER_43_87
*4437 FILLER_44_1
*4448 FILLER_44_105
*4449 FILLER_44_117
*4450 FILLER_44_149
*4451 FILLER_44_165
*4438 FILLER_44_17
*4452 FILLER_44_173
*4453 FILLER_44_177
*4454 FILLER_44_181
*4455 FILLER_44_187
*4456 FILLER_44_219
*4457 FILLER_44_235
*4458 FILLER_44_245
*4439 FILLER_44_25
*4440 FILLER_44_27
*4459 FILLER_44_277
*4460 FILLER_44_309
*4461 FILLER_44_341
*4462 FILLER_44_373
*4463 FILLER_44_381
*4464 FILLER_44_385
*4465 FILLER_44_387
*4466 FILLER_44_397
*4441 FILLER_44_41
*4467 FILLER_44_413
*4468 FILLER_44_417
*4469 FILLER_44_419
*4470 FILLER_44_429
*4471 FILLER_44_461
*4472 FILLER_44_477
*4473 FILLER_44_485
*4474 FILLER_44_489
*4475 FILLER_44_494
*4476 FILLER_44_510
*4477 FILLER_44_518
*4478 FILLER_44_540
*4479 FILLER_44_556
*4480 FILLER_44_566
*4442 FILLER_44_57
*4481 FILLER_44_571
*4482 FILLER_44_573
*4483 FILLER_44_578
*4484 FILLER_44_586
*4485 FILLER_44_588
*4486 FILLER_44_598
*4487 FILLER_44_608
*4488 FILLER_44_624
*4489 FILLER_44_628
*4490 FILLER_44_630
*4491 FILLER_44_632
*4492 FILLER_44_648
*4443 FILLER_44_65
*4493 FILLER_44_650
*4494 FILLER_44_654
*4495 FILLER_44_656
*4496 FILLER_44_660
*4497 FILLER_44_668
*4444 FILLER_44_67
*4498 FILLER_44_672
*4445 FILLER_44_71
*4446 FILLER_44_75
*4447 FILLER_44_89
*4499 FILLER_45_1
*4509 FILLER_45_120
*4510 FILLER_45_128
*4501 FILLER_45_13
*4511 FILLER_45_132
*4512 FILLER_45_134
*4513 FILLER_45_139
*4514 FILLER_45_145
*4515 FILLER_45_148
*4502 FILLER_45_15
*4516 FILLER_45_156
*4517 FILLER_45_160
*4518 FILLER_45_171
*4519 FILLER_45_180
*4520 FILLER_45_185
*4503 FILLER_45_19
*4521 FILLER_45_217
*4522 FILLER_45_233
*4523 FILLER_45_235
*4524 FILLER_45_253
*4525 FILLER_45_259
*4526 FILLER_45_275
*4527 FILLER_45_279
*4528 FILLER_45_287
*4529 FILLER_45_291
*4530 FILLER_45_323
*4531 FILLER_45_339
*4532 FILLER_45_347
*4533 FILLER_45_358
*4534 FILLER_45_377
*4504 FILLER_45_38
*4535 FILLER_45_385
*4536 FILLER_45_387
*4537 FILLER_45_405
*4538 FILLER_45_413
*4539 FILLER_45_419
*4505 FILLER_45_42
*4540 FILLER_45_423
*4541 FILLER_45_425
*4542 FILLER_45_434
*4543 FILLER_45_438
*4544 FILLER_45_443
*4545 FILLER_45_459
*4546 FILLER_45_467
*4547 FILLER_45_471
*4548 FILLER_45_473
*4549 FILLER_45_477
*4550 FILLER_45_493
*4551 FILLER_45_497
*4552 FILLER_45_499
*4553 FILLER_45_503
*4554 FILLER_45_538
*4555 FILLER_45_554
*4556 FILLER_45_575
*4557 FILLER_45_583
*4558 FILLER_45_604
*4559 FILLER_45_636
*4560 FILLER_45_668
*4561 FILLER_45_672
*4506 FILLER_45_74
*4507 FILLER_45_78
*4508 FILLER_45_88
*4500 FILLER_45_9
*4562 FILLER_46_1
*4566 FILLER_46_120
*4567 FILLER_46_128
*4568 FILLER_46_132
*4569 FILLER_46_140
*4570 FILLER_46_144
*4571 FILLER_46_146
*4572 FILLER_46_151
*4573 FILLER_46_167
*4574 FILLER_46_175
*4575 FILLER_46_183
*4576 FILLER_46_215
*4577 FILLER_46_231
*4578 FILLER_46_235
*4579 FILLER_46_237
*4580 FILLER_46_244
*4581 FILLER_46_246
*4582 FILLER_46_250
*4583 FILLER_46_261
*4584 FILLER_46_286
*4585 FILLER_46_295
*4586 FILLER_46_311
*4587 FILLER_46_316
*4588 FILLER_46_321
*4589 FILLER_46_353
*4563 FILLER_46_36
*4590 FILLER_46_385
*4591 FILLER_46_417
*4592 FILLER_46_433
*4593 FILLER_46_437
*4594 FILLER_46_442
*4595 FILLER_46_458
*4596 FILLER_46_462
*4597 FILLER_46_469
*4598 FILLER_46_471
*4599 FILLER_46_495
*4600 FILLER_46_497
*4601 FILLER_46_502
*4602 FILLER_46_510
*4603 FILLER_46_517
*4604 FILLER_46_549
*4605 FILLER_46_581
*4606 FILLER_46_613
*4607 FILLER_46_629
*4608 FILLER_46_632
*4609 FILLER_46_664
*4610 FILLER_46_672
*4564 FILLER_46_68
*4565 FILLER_46_88
*4611 FILLER_47_1
*4615 FILLER_47_129
*4616 FILLER_47_137
*4617 FILLER_47_141
*4618 FILLER_47_144
*4619 FILLER_47_160
*4620 FILLER_47_168
*4621 FILLER_47_172
*4622 FILLER_47_178
*4623 FILLER_47_180
*4624 FILLER_47_189
*4625 FILLER_47_221
*4626 FILLER_47_229
*4627 FILLER_47_231
*4628 FILLER_47_249
*4629 FILLER_47_281
*4630 FILLER_47_289
*4631 FILLER_47_314
*4612 FILLER_47_33
*4632 FILLER_47_346
*4633 FILLER_47_378
*4634 FILLER_47_410
*4635 FILLER_47_442
*4636 FILLER_47_474
*4637 FILLER_47_506
*4638 FILLER_47_512
*4639 FILLER_47_544
*4640 FILLER_47_576
*4641 FILLER_47_608
*4642 FILLER_47_640
*4613 FILLER_47_65
*4643 FILLER_47_672
*4614 FILLER_47_97
*4644 FILLER_48_1
*4652 FILLER_48_107
*4646 FILLER_48_13
*4653 FILLER_48_139
*4647 FILLER_48_15
*4648 FILLER_48_19
*4654 FILLER_48_190
*4655 FILLER_48_222
*4656 FILLER_48_254
*4657 FILLER_48_286
*4658 FILLER_48_318
*4659 FILLER_48_350
*4660 FILLER_48_388
*4661 FILLER_48_420
*4662 FILLER_48_452
*4663 FILLER_48_484
*4664 FILLER_48_495
*4649 FILLER_48_51
*4665 FILLER_48_511
*4666 FILLER_48_516
*4667 FILLER_48_524
*4668 FILLER_48_556
*4669 FILLER_48_572
*4670 FILLER_48_580
*4671 FILLER_48_584
*4672 FILLER_48_592
*4673 FILLER_48_627
*4674 FILLER_48_632
*4675 FILLER_48_636
*4676 FILLER_48_643
*4677 FILLER_48_647
*4678 FILLER_48_666
*4679 FILLER_48_670
*4680 FILLER_48_672
*4650 FILLER_48_75
*4645 FILLER_48_9
*4651 FILLER_48_91
*4681 FILLER_49_1
*4686 FILLER_49_104
*4687 FILLER_49_108
*4688 FILLER_49_117
*4689 FILLER_49_121
*4690 FILLER_49_123
*4691 FILLER_49_136
*4692 FILLER_49_142
*4693 FILLER_49_158
*4694 FILLER_49_176
*4695 FILLER_49_208
*4696 FILLER_49_240
*4697 FILLER_49_246
*4698 FILLER_49_254
*4699 FILLER_49_256
*4700 FILLER_49_262
*4701 FILLER_49_294
*4702 FILLER_49_302
*4703 FILLER_49_308
*4682 FILLER_49_33
*4704 FILLER_49_340
*4705 FILLER_49_372
*4706 FILLER_49_396
*4707 FILLER_49_404
*4708 FILLER_49_408
*4709 FILLER_49_426
*4710 FILLER_49_458
*4711 FILLER_49_474
*4712 FILLER_49_482
*4713 FILLER_49_486
*4683 FILLER_49_49
*4714 FILLER_49_507
*4715 FILLER_49_528
*4716 FILLER_49_560
*4717 FILLER_49_564
*4684 FILLER_49_57
*4718 FILLER_49_570
*4719 FILLER_49_586
*4720 FILLER_49_596
*4721 FILLER_49_612
*4722 FILLER_49_620
*4723 FILLER_49_627
*4724 FILLER_49_659
*4725 FILLER_49_667
*4726 FILLER_49_671
*4685 FILLER_49_72
*2792 FILLER_4_1
*2796 FILLER_4_129
*2797 FILLER_4_161
*2798 FILLER_4_193
*2799 FILLER_4_225
*2800 FILLER_4_257
*2801 FILLER_4_289
*2802 FILLER_4_321
*2793 FILLER_4_33
*2803 FILLER_4_353
*2804 FILLER_4_385
*2805 FILLER_4_417
*2806 FILLER_4_449
*2807 FILLER_4_481
*2808 FILLER_4_513
*2809 FILLER_4_545
*2810 FILLER_4_577
*2811 FILLER_4_609
*2812 FILLER_4_625
*2813 FILLER_4_629
*2814 FILLER_4_632
*2794 FILLER_4_65
*2815 FILLER_4_664
*2816 FILLER_4_672
*2795 FILLER_4_97
*4727 FILLER_50_1
*4737 FILLER_50_115
*4738 FILLER_50_123
*4739 FILLER_50_142
*4740 FILLER_50_163
*4728 FILLER_50_17
*4741 FILLER_50_171
*4742 FILLER_50_176
*4743 FILLER_50_178
*4744 FILLER_50_195
*4745 FILLER_50_227
*4746 FILLER_50_231
*4747 FILLER_50_238
*4729 FILLER_50_25
*4748 FILLER_50_270
*4749 FILLER_50_286
*4730 FILLER_50_29
*4750 FILLER_50_292
*4751 FILLER_50_300
*4752 FILLER_50_302
*4753 FILLER_50_311
*4754 FILLER_50_319
*4755 FILLER_50_321
*4756 FILLER_50_327
*4731 FILLER_50_33
*4757 FILLER_50_343
*4758 FILLER_50_347
*4759 FILLER_50_352
*4732 FILLER_50_36
*4760 FILLER_50_377
*4761 FILLER_50_383
*4762 FILLER_50_385
*4763 FILLER_50_390
*4764 FILLER_50_406
*4765 FILLER_50_410
*4766 FILLER_50_421
*4767 FILLER_50_432
*4768 FILLER_50_440
*4769 FILLER_50_444
*4770 FILLER_50_448
*4771 FILLER_50_452
*4772 FILLER_50_484
*4773 FILLER_50_488
*4774 FILLER_50_493
*4775 FILLER_50_525
*4776 FILLER_50_557
*4777 FILLER_50_561
*4778 FILLER_50_568
*4779 FILLER_50_584
*4780 FILLER_50_602
*4781 FILLER_50_610
*4782 FILLER_50_626
*4783 FILLER_50_630
*4784 FILLER_50_632
*4733 FILLER_50_64
*4785 FILLER_50_640
*4786 FILLER_50_646
*4787 FILLER_50_662
*4788 FILLER_50_666
*4789 FILLER_50_670
*4790 FILLER_50_672
*4734 FILLER_50_73
*4735 FILLER_50_89
*4736 FILLER_50_99
*4791 FILLER_51_1
*4798 FILLER_51_106
*4799 FILLER_51_138
*4800 FILLER_51_170
*4801 FILLER_51_187
*4802 FILLER_51_219
*4803 FILLER_51_227
*4804 FILLER_51_231
*4805 FILLER_51_238
*4806 FILLER_51_254
*4807 FILLER_51_256
*4808 FILLER_51_260
*4809 FILLER_51_276
*4810 FILLER_51_284
*4811 FILLER_51_294
*4812 FILLER_51_302
*4813 FILLER_51_308
*4792 FILLER_51_33
*4814 FILLER_51_340
*4815 FILLER_51_372
*4816 FILLER_51_376
*4817 FILLER_51_383
*4818 FILLER_51_387
*4819 FILLER_51_390
*4820 FILLER_51_422
*4821 FILLER_51_430
*4822 FILLER_51_435
*4823 FILLER_51_443
*4824 FILLER_51_447
*4825 FILLER_51_465
*4826 FILLER_51_481
*4793 FILLER_51_49
*4827 FILLER_51_494
*4828 FILLER_51_510
*4829 FILLER_51_518
*4830 FILLER_51_522
*4831 FILLER_51_524
*4832 FILLER_51_528
*4794 FILLER_51_53
*4795 FILLER_51_55
*4833 FILLER_51_560
*4834 FILLER_51_562
*4835 FILLER_51_574
*4836 FILLER_51_578
*4837 FILLER_51_580
*4838 FILLER_51_585
*4839 FILLER_51_593
*4840 FILLER_51_597
*4841 FILLER_51_599
*4842 FILLER_51_605
*4843 FILLER_51_613
*4844 FILLER_51_617
*4796 FILLER_51_62
*4845 FILLER_51_621
*4846 FILLER_51_629
*4847 FILLER_51_633
*4848 FILLER_51_638
*4849 FILLER_51_640
*4850 FILLER_51_658
*4851 FILLER_51_666
*4852 FILLER_51_670
*4853 FILLER_51_672
*4797 FILLER_51_74
*4854 FILLER_52_1
*4863 FILLER_52_104
*4864 FILLER_52_136
*4865 FILLER_52_144
*4866 FILLER_52_152
*4867 FILLER_52_198
*4868 FILLER_52_214
*4869 FILLER_52_242
*4870 FILLER_52_246
*4871 FILLER_52_271
*4872 FILLER_52_276
*4873 FILLER_52_284
*4874 FILLER_52_286
*4875 FILLER_52_296
*4876 FILLER_52_318
*4877 FILLER_52_322
*4878 FILLER_52_327
*4855 FILLER_52_33
*4879 FILLER_52_343
*4880 FILLER_52_347
*4881 FILLER_52_349
*4882 FILLER_52_353
*4883 FILLER_52_369
*4884 FILLER_52_375
*4885 FILLER_52_377
*4886 FILLER_52_381
*4887 FILLER_52_397
*4888 FILLER_52_401
*4889 FILLER_52_407
*4890 FILLER_52_415
*4891 FILLER_52_421
*4892 FILLER_52_437
*4893 FILLER_52_442
*4894 FILLER_52_446
*4895 FILLER_52_448
*4896 FILLER_52_455
*4897 FILLER_52_487
*4898 FILLER_52_489
*4856 FILLER_52_49
*4899 FILLER_52_495
*4900 FILLER_52_527
*4857 FILLER_52_54
*4901 FILLER_52_543
*4902 FILLER_52_551
*4903 FILLER_52_555
*4904 FILLER_52_574
*4905 FILLER_52_606
*4858 FILLER_52_62
*4906 FILLER_52_632
*4859 FILLER_52_66
*4907 FILLER_52_664
*4908 FILLER_52_672
*4860 FILLER_52_73
*4861 FILLER_52_89
*4862 FILLER_52_93
*4909 FILLER_53_1
*4918 FILLER_53_100
*4919 FILLER_53_105
*4920 FILLER_53_137
*4911 FILLER_53_14
*4921 FILLER_53_145
*4922 FILLER_53_149
*4923 FILLER_53_181
*4924 FILLER_53_213
*4925 FILLER_53_245
*4926 FILLER_53_277
*4927 FILLER_53_296
*4928 FILLER_53_312
*4929 FILLER_53_316
*4912 FILLER_53_33
*4930 FILLER_53_334
*4931 FILLER_53_366
*4932 FILLER_53_373
*4933 FILLER_53_405
*4913 FILLER_53_41
*4934 FILLER_53_437
*4935 FILLER_53_441
*4936 FILLER_53_446
*4937 FILLER_53_478
*4938 FILLER_53_486
*4939 FILLER_53_488
*4940 FILLER_53_494
*4941 FILLER_53_498
*4942 FILLER_53_504
*4943 FILLER_53_520
*4944 FILLER_53_535
*4945 FILLER_53_567
*4946 FILLER_53_583
*4947 FILLER_53_602
*4948 FILLER_53_618
*4949 FILLER_53_637
*4914 FILLER_53_64
*4950 FILLER_53_669
*4915 FILLER_53_71
*4916 FILLER_53_87
*4917 FILLER_53_89
*4910 FILLER_53_9
*4951 FILLER_54_1
*4962 FILLER_54_102
*4963 FILLER_54_115
*4964 FILLER_54_123
*4965 FILLER_54_125
*4953 FILLER_54_13
*4966 FILLER_54_131
*4967 FILLER_54_135
*4968 FILLER_54_138
*4969 FILLER_54_151
*4954 FILLER_54_17
*4970 FILLER_54_183
*4971 FILLER_54_191
*4972 FILLER_54_193
*4973 FILLER_54_203
*4974 FILLER_54_235
*4975 FILLER_54_267
*4976 FILLER_54_299
*4977 FILLER_54_315
*4978 FILLER_54_319
*4979 FILLER_54_321
*4980 FILLER_54_327
*4955 FILLER_54_33
*4981 FILLER_54_359
*4982 FILLER_54_375
*4983 FILLER_54_380
*4984 FILLER_54_382
*4985 FILLER_54_386
*4986 FILLER_54_418
*4987 FILLER_54_434
*4988 FILLER_54_442
*4956 FILLER_54_47
*4989 FILLER_54_474
*4990 FILLER_54_490
*4991 FILLER_54_498
*4992 FILLER_54_502
*4993 FILLER_54_517
*4994 FILLER_54_542
*4995 FILLER_54_574
*4996 FILLER_54_589
*4997 FILLER_54_591
*4998 FILLER_54_599
*4999 FILLER_54_632
*5000 FILLER_54_639
*4957 FILLER_54_65
*5001 FILLER_54_671
*4958 FILLER_54_81
*4959 FILLER_54_85
*4952 FILLER_54_9
*4960 FILLER_54_92
*4961 FILLER_54_95
*5002 FILLER_55_1
*5016 FILLER_55_131
*5017 FILLER_55_135
*5018 FILLER_55_137
*5019 FILLER_55_145
*5003 FILLER_55_17
*5020 FILLER_55_177
*5021 FILLER_55_209
*5004 FILLER_55_21
*5022 FILLER_55_241
*5005 FILLER_55_26
*5023 FILLER_55_273
*5006 FILLER_55_30
*5024 FILLER_55_305
*5025 FILLER_55_337
*5026 FILLER_55_345
*5027 FILLER_55_349
*5028 FILLER_55_371
*5029 FILLER_55_389
*5030 FILLER_55_397
*5031 FILLER_55_401
*5032 FILLER_55_422
*5033 FILLER_55_426
*5034 FILLER_55_448
*5007 FILLER_55_45
*5035 FILLER_55_480
*5008 FILLER_55_49
*5036 FILLER_55_495
*5037 FILLER_55_499
*5038 FILLER_55_501
*5039 FILLER_55_519
*5040 FILLER_55_551
*5041 FILLER_55_567
*5042 FILLER_55_571
*5009 FILLER_55_58
*5043 FILLER_55_589
*5010 FILLER_55_60
*5044 FILLER_55_621
*5011 FILLER_55_64
*5045 FILLER_55_653
*5046 FILLER_55_669
*5012 FILLER_55_80
*5013 FILLER_55_84
*5014 FILLER_55_91
*5015 FILLER_55_99
*5047 FILLER_56_1
*5053 FILLER_56_119
*5054 FILLER_56_151
*5055 FILLER_56_183
*5056 FILLER_56_215
*5057 FILLER_56_247
*5058 FILLER_56_263
*5059 FILLER_56_271
*5060 FILLER_56_273
*5061 FILLER_56_281
*5062 FILLER_56_297
*5063 FILLER_56_312
*5048 FILLER_56_33
*5064 FILLER_56_344
*5065 FILLER_56_352
*5066 FILLER_56_356
*5067 FILLER_56_361
*5068 FILLER_56_377
*5069 FILLER_56_385
*5070 FILLER_56_389
*5071 FILLER_56_412
*5072 FILLER_56_444
*5073 FILLER_56_476
*5074 FILLER_56_478
*5075 FILLER_56_496
*5076 FILLER_56_504
*5077 FILLER_56_508
*5078 FILLER_56_513
*5079 FILLER_56_529
*5080 FILLER_56_533
*5081 FILLER_56_538
*5082 FILLER_56_546
*5083 FILLER_56_548
*5084 FILLER_56_556
*5085 FILLER_56_588
*5086 FILLER_56_620
*5087 FILLER_56_628
*5088 FILLER_56_630
*5089 FILLER_56_632
*5049 FILLER_56_65
*5090 FILLER_56_664
*5091 FILLER_56_672
*5050 FILLER_56_81
*5051 FILLER_56_83
*5052 FILLER_56_87
*5092 FILLER_57_1
*5096 FILLER_57_129
*5097 FILLER_57_161
*5098 FILLER_57_193
*5099 FILLER_57_209
*5100 FILLER_57_217
*5101 FILLER_57_221
*5102 FILLER_57_227
*5103 FILLER_57_231
*5104 FILLER_57_239
*5105 FILLER_57_241
*5106 FILLER_57_246
*5107 FILLER_57_253
*5108 FILLER_57_261
*5109 FILLER_57_282
*5110 FILLER_57_298
*5111 FILLER_57_300
*5112 FILLER_57_322
*5093 FILLER_57_33
*5113 FILLER_57_354
*5114 FILLER_57_386
*5115 FILLER_57_418
*5116 FILLER_57_450
*5117 FILLER_57_482
*5118 FILLER_57_486
*5119 FILLER_57_488
*5120 FILLER_57_492
*5121 FILLER_57_500
*5122 FILLER_57_504
*5123 FILLER_57_508
*5124 FILLER_57_540
*5125 FILLER_57_561
*5126 FILLER_57_593
*5127 FILLER_57_632
*5128 FILLER_57_636
*5129 FILLER_57_638
*5130 FILLER_57_643
*5131 FILLER_57_647
*5094 FILLER_57_65
*5132 FILLER_57_663
*5133 FILLER_57_671
*5095 FILLER_57_97
*5134 FILLER_58_1
*5138 FILLER_58_129
*5139 FILLER_58_161
*5140 FILLER_58_193
*5141 FILLER_58_209
*5142 FILLER_58_213
*5143 FILLER_58_232
*5144 FILLER_58_234
*5145 FILLER_58_252
*5146 FILLER_58_260
*5147 FILLER_58_268
*5148 FILLER_58_280
*5149 FILLER_58_296
*5150 FILLER_58_304
*5151 FILLER_58_312
*5135 FILLER_58_33
*5152 FILLER_58_344
*5153 FILLER_58_376
*5154 FILLER_58_408
*5155 FILLER_58_440
*5156 FILLER_58_456
*5157 FILLER_58_464
*5158 FILLER_58_470
*5159 FILLER_58_478
*5160 FILLER_58_491
*5161 FILLER_58_523
*5162 FILLER_58_531
*5163 FILLER_58_535
*5164 FILLER_58_567
*5165 FILLER_58_583
*5166 FILLER_58_591
*5167 FILLER_58_595
*5168 FILLER_58_600
*5169 FILLER_58_604
*5170 FILLER_58_606
*5171 FILLER_58_613
*5172 FILLER_58_632
*5173 FILLER_58_634
*5136 FILLER_58_65
*5174 FILLER_58_652
*5175 FILLER_58_668
*5176 FILLER_58_672
*5137 FILLER_58_97
*5177 FILLER_59_1
*5181 FILLER_59_129
*5182 FILLER_59_161
*5183 FILLER_59_193
*5184 FILLER_59_225
*5185 FILLER_59_257
*5186 FILLER_59_289
*5187 FILLER_59_321
*5178 FILLER_59_33
*5188 FILLER_59_353
*5189 FILLER_59_386
*5190 FILLER_59_418
*5191 FILLER_59_426
*5192 FILLER_59_430
*5193 FILLER_59_435
*5194 FILLER_59_451
*5195 FILLER_59_455
*5196 FILLER_59_457
*5197 FILLER_59_475
*5198 FILLER_59_479
*5199 FILLER_59_484
*5200 FILLER_59_500
*5201 FILLER_59_508
*5202 FILLER_59_512
*5203 FILLER_59_516
*5204 FILLER_59_548
*5205 FILLER_59_564
*5206 FILLER_59_568
*5207 FILLER_59_577
*5208 FILLER_59_582
*5209 FILLER_59_590
*5210 FILLER_59_592
*5211 FILLER_59_598
*5212 FILLER_59_630
*5179 FILLER_59_65
*5213 FILLER_59_662
*5214 FILLER_59_670
*5215 FILLER_59_672
*5180 FILLER_59_97
*2817 FILLER_5_1
*2821 FILLER_5_129
*2822 FILLER_5_161
*2823 FILLER_5_193
*2824 FILLER_5_225
*2825 FILLER_5_257
*2826 FILLER_5_289
*2827 FILLER_5_321
*2818 FILLER_5_33
*2828 FILLER_5_353
*2829 FILLER_5_385
*2830 FILLER_5_417
*2831 FILLER_5_449
*2832 FILLER_5_481
*2833 FILLER_5_513
*2834 FILLER_5_545
*2835 FILLER_5_577
*2836 FILLER_5_609
*2837 FILLER_5_641
*2819 FILLER_5_65
*2820 FILLER_5_97
*5216 FILLER_60_1
*5220 FILLER_60_129
*5221 FILLER_60_161
*5222 FILLER_60_193
*5223 FILLER_60_225
*5224 FILLER_60_257
*5225 FILLER_60_265
*5226 FILLER_60_269
*5227 FILLER_60_271
*5228 FILLER_60_277
*5229 FILLER_60_285
*5230 FILLER_60_287
*5231 FILLER_60_291
*5232 FILLER_60_307
*5233 FILLER_60_311
*5234 FILLER_60_313
*5235 FILLER_60_322
*5217 FILLER_60_33
*5236 FILLER_60_354
*5237 FILLER_60_370
*5238 FILLER_60_378
*5239 FILLER_60_393
*5240 FILLER_60_397
*5241 FILLER_60_407
*5242 FILLER_60_411
*5243 FILLER_60_415
*5244 FILLER_60_439
*5245 FILLER_60_444
*5246 FILLER_60_460
*5247 FILLER_60_468
*5248 FILLER_60_474
*5249 FILLER_60_490
*5250 FILLER_60_492
*5251 FILLER_60_498
*5252 FILLER_60_514
*5253 FILLER_60_518
*5254 FILLER_60_522
*5255 FILLER_60_526
*5256 FILLER_60_530
*5257 FILLER_60_537
*5258 FILLER_60_553
*5259 FILLER_60_561
*5260 FILLER_60_583
*5261 FILLER_60_590
*5262 FILLER_60_594
*5263 FILLER_60_599
*5264 FILLER_60_607
*5265 FILLER_60_609
*5266 FILLER_60_613
*5267 FILLER_60_629
*5268 FILLER_60_632
*5269 FILLER_60_640
*5218 FILLER_60_65
*5270 FILLER_60_672
*5219 FILLER_60_97
*5271 FILLER_61_1
*5275 FILLER_61_129
*5276 FILLER_61_161
*5277 FILLER_61_193
*5278 FILLER_61_225
*5279 FILLER_61_257
*5280 FILLER_61_261
*5281 FILLER_61_266
*5282 FILLER_61_282
*5283 FILLER_61_289
*5284 FILLER_61_297
*5285 FILLER_61_301
*5286 FILLER_61_309
*5287 FILLER_61_317
*5288 FILLER_61_321
*5289 FILLER_61_323
*5290 FILLER_61_327
*5272 FILLER_61_33
*5291 FILLER_61_359
*5292 FILLER_61_375
*5293 FILLER_61_379
*5294 FILLER_61_381
*5295 FILLER_61_399
*5296 FILLER_61_406
*5297 FILLER_61_438
*5298 FILLER_61_470
*5299 FILLER_61_502
*5300 FILLER_61_506
*5301 FILLER_61_508
*5302 FILLER_61_513
*5303 FILLER_61_515
*5304 FILLER_61_519
*5305 FILLER_61_527
*5306 FILLER_61_533
*5307 FILLER_61_565
*5308 FILLER_61_581
*5309 FILLER_61_585
*5310 FILLER_61_606
*5311 FILLER_61_622
*5312 FILLER_61_647
*5273 FILLER_61_65
*5313 FILLER_61_663
*5314 FILLER_61_671
*5274 FILLER_61_97
*5315 FILLER_62_1
*5319 FILLER_62_129
*5320 FILLER_62_161
*5321 FILLER_62_193
*5322 FILLER_62_225
*5323 FILLER_62_241
*5324 FILLER_62_243
*5325 FILLER_62_251
*5326 FILLER_62_267
*5327 FILLER_62_271
*5328 FILLER_62_280
*5329 FILLER_62_288
*5330 FILLER_62_311
*5331 FILLER_62_319
*5332 FILLER_62_323
*5316 FILLER_62_33
*5333 FILLER_62_332
*5334 FILLER_62_364
*5335 FILLER_62_380
*5336 FILLER_62_386
*5337 FILLER_62_402
*5338 FILLER_62_410
*5339 FILLER_62_412
*5340 FILLER_62_417
*5341 FILLER_62_426
*5342 FILLER_62_442
*5343 FILLER_62_446
*5344 FILLER_62_478
*5345 FILLER_62_494
*5346 FILLER_62_502
*5347 FILLER_62_506
*5348 FILLER_62_508
*5349 FILLER_62_526
*5350 FILLER_62_537
*5351 FILLER_62_569
*5352 FILLER_62_601
*5353 FILLER_62_607
*5354 FILLER_62_623
*5355 FILLER_62_632
*5317 FILLER_62_65
*5356 FILLER_62_664
*5357 FILLER_62_672
*5318 FILLER_62_97
*5358 FILLER_63_1
*5362 FILLER_63_129
*5363 FILLER_63_161
*5364 FILLER_63_193
*5365 FILLER_63_225
*5366 FILLER_63_233
*5367 FILLER_63_237
*5368 FILLER_63_256
*5369 FILLER_63_264
*5370 FILLER_63_268
*5371 FILLER_63_287
*5372 FILLER_63_319
*5359 FILLER_63_33
*5373 FILLER_63_338
*5374 FILLER_63_370
*5375 FILLER_63_402
*5376 FILLER_63_407
*5377 FILLER_63_415
*5378 FILLER_63_419
*5379 FILLER_63_424
*5380 FILLER_63_456
*5381 FILLER_63_491
*5382 FILLER_63_523
*5383 FILLER_63_555
*5384 FILLER_63_563
*5385 FILLER_63_569
*5386 FILLER_63_573
*5387 FILLER_63_605
*5388 FILLER_63_637
*5360 FILLER_63_65
*5389 FILLER_63_669
*5361 FILLER_63_97
*5390 FILLER_64_1
*5394 FILLER_64_129
*5395 FILLER_64_161
*5396 FILLER_64_193
*5397 FILLER_64_225
*5398 FILLER_64_257
*5399 FILLER_64_289
*5400 FILLER_64_321
*5391 FILLER_64_33
*5401 FILLER_64_337
*5402 FILLER_64_345
*5403 FILLER_64_349
*5404 FILLER_64_355
*5405 FILLER_64_377
*5406 FILLER_64_409
*5407 FILLER_64_425
*5408 FILLER_64_433
*5409 FILLER_64_437
*5410 FILLER_64_439
*5411 FILLER_64_447
*5412 FILLER_64_463
*5413 FILLER_64_491
*5414 FILLER_64_507
*5415 FILLER_64_515
*5416 FILLER_64_534
*5417 FILLER_64_550
*5418 FILLER_64_558
*5419 FILLER_64_576
*5420 FILLER_64_608
*5421 FILLER_64_624
*5422 FILLER_64_628
*5423 FILLER_64_630
*5424 FILLER_64_632
*5392 FILLER_64_65
*5425 FILLER_64_664
*5426 FILLER_64_672
*5393 FILLER_64_97
*5427 FILLER_65_1
*5431 FILLER_65_129
*5432 FILLER_65_161
*5433 FILLER_65_193
*5434 FILLER_65_225
*5435 FILLER_65_257
*5436 FILLER_65_289
*5437 FILLER_65_321
*5428 FILLER_65_33
*5438 FILLER_65_353
*5439 FILLER_65_361
*5440 FILLER_65_365
*5441 FILLER_65_373
*5442 FILLER_65_391
*5443 FILLER_65_399
*5444 FILLER_65_403
*5445 FILLER_65_421
*5446 FILLER_65_429
*5447 FILLER_65_433
*5448 FILLER_65_435
*5449 FILLER_65_453
*5450 FILLER_65_485
*5451 FILLER_65_517
*5452 FILLER_65_521
*5453 FILLER_65_526
*5454 FILLER_65_531
*5455 FILLER_65_563
*5456 FILLER_65_595
*5457 FILLER_65_627
*5429 FILLER_65_65
*5458 FILLER_65_659
*5459 FILLER_65_667
*5460 FILLER_65_671
*5430 FILLER_65_97
*5461 FILLER_66_1
*5465 FILLER_66_129
*5466 FILLER_66_161
*5467 FILLER_66_193
*5468 FILLER_66_225
*5469 FILLER_66_257
*5470 FILLER_66_289
*5471 FILLER_66_321
*5462 FILLER_66_33
*5472 FILLER_66_353
*5473 FILLER_66_385
*5474 FILLER_66_393
*5475 FILLER_66_395
*5476 FILLER_66_400
*5477 FILLER_66_402
*5478 FILLER_66_406
*5479 FILLER_66_412
*5480 FILLER_66_417
*5481 FILLER_66_449
*5482 FILLER_66_481
*5483 FILLER_66_513
*5484 FILLER_66_545
*5485 FILLER_66_577
*5486 FILLER_66_609
*5487 FILLER_66_625
*5488 FILLER_66_629
*5489 FILLER_66_632
*5490 FILLER_66_640
*5491 FILLER_66_644
*5463 FILLER_66_65
*5492 FILLER_66_660
*5493 FILLER_66_668
*5494 FILLER_66_672
*5464 FILLER_66_97
*5495 FILLER_67_1
*5499 FILLER_67_129
*5500 FILLER_67_161
*5501 FILLER_67_193
*5502 FILLER_67_225
*5503 FILLER_67_257
*5504 FILLER_67_289
*5505 FILLER_67_321
*5496 FILLER_67_33
*5506 FILLER_67_353
*5507 FILLER_67_385
*5508 FILLER_67_387
*5509 FILLER_67_405
*5510 FILLER_67_437
*5511 FILLER_67_469
*5512 FILLER_67_501
*5513 FILLER_67_533
*5514 FILLER_67_565
*5515 FILLER_67_597
*5516 FILLER_67_629
*5497 FILLER_67_65
*5517 FILLER_67_661
*5518 FILLER_67_669
*5498 FILLER_67_97
*5519 FILLER_68_1
*5523 FILLER_68_129
*5524 FILLER_68_161
*5525 FILLER_68_193
*5526 FILLER_68_225
*5527 FILLER_68_257
*5528 FILLER_68_289
*5529 FILLER_68_321
*5520 FILLER_68_33
*5530 FILLER_68_353
*5531 FILLER_68_385
*5532 FILLER_68_417
*5533 FILLER_68_449
*5534 FILLER_68_482
*5535 FILLER_68_507
*5536 FILLER_68_539
*5537 FILLER_68_571
*5538 FILLER_68_603
*5539 FILLER_68_619
*5540 FILLER_68_627
*5541 FILLER_68_632
*5542 FILLER_68_636
*5543 FILLER_68_640
*5521 FILLER_68_65
*5544 FILLER_68_672
*5522 FILLER_68_97
*5545 FILLER_69_1
*5549 FILLER_69_129
*5550 FILLER_69_161
*5551 FILLER_69_193
*5552 FILLER_69_225
*5553 FILLER_69_257
*5554 FILLER_69_289
*5555 FILLER_69_321
*5546 FILLER_69_33
*5556 FILLER_69_353
*5557 FILLER_69_385
*5558 FILLER_69_417
*5559 FILLER_69_449
*5560 FILLER_69_481
*5561 FILLER_69_513
*5562 FILLER_69_545
*5563 FILLER_69_577
*5564 FILLER_69_609
*5565 FILLER_69_641
*5547 FILLER_69_65
*5548 FILLER_69_97
*2838 FILLER_6_1
*2842 FILLER_6_129
*2843 FILLER_6_161
*2844 FILLER_6_193
*2845 FILLER_6_225
*2846 FILLER_6_241
*2847 FILLER_6_249
*2848 FILLER_6_251
*2849 FILLER_6_255
*2850 FILLER_6_287
*2851 FILLER_6_319
*2839 FILLER_6_33
*2852 FILLER_6_351
*2853 FILLER_6_383
*2854 FILLER_6_415
*2855 FILLER_6_447
*2856 FILLER_6_479
*2857 FILLER_6_511
*2858 FILLER_6_543
*2859 FILLER_6_575
*2860 FILLER_6_607
*2861 FILLER_6_623
*2862 FILLER_6_632
*2840 FILLER_6_65
*2863 FILLER_6_664
*2864 FILLER_6_672
*2841 FILLER_6_97
*5566 FILLER_70_1
*5570 FILLER_70_129
*5571 FILLER_70_161
*5572 FILLER_70_193
*5573 FILLER_70_225
*5574 FILLER_70_257
*5575 FILLER_70_289
*5576 FILLER_70_321
*5567 FILLER_70_33
*5577 FILLER_70_353
*5578 FILLER_70_385
*5579 FILLER_70_417
*5580 FILLER_70_449
*5581 FILLER_70_465
*5582 FILLER_70_469
*5583 FILLER_70_471
*5584 FILLER_70_489
*5585 FILLER_70_521
*5586 FILLER_70_553
*5587 FILLER_70_585
*5588 FILLER_70_617
*5589 FILLER_70_625
*5590 FILLER_70_629
*5591 FILLER_70_632
*5568 FILLER_70_65
*5592 FILLER_70_664
*5593 FILLER_70_672
*5569 FILLER_70_97
*5594 FILLER_71_1
*5598 FILLER_71_129
*5599 FILLER_71_161
*5600 FILLER_71_193
*5601 FILLER_71_225
*5602 FILLER_71_257
*5603 FILLER_71_289
*5604 FILLER_71_321
*5595 FILLER_71_33
*5605 FILLER_71_353
*5606 FILLER_71_385
*5607 FILLER_71_417
*5608 FILLER_71_449
*5609 FILLER_71_481
*5610 FILLER_71_513
*5611 FILLER_71_545
*5612 FILLER_71_577
*5613 FILLER_71_609
*5614 FILLER_71_641
*5596 FILLER_71_65
*5597 FILLER_71_97
*5615 FILLER_72_1
*5619 FILLER_72_129
*5620 FILLER_72_161
*5621 FILLER_72_193
*5622 FILLER_72_225
*5623 FILLER_72_257
*5624 FILLER_72_289
*5625 FILLER_72_321
*5616 FILLER_72_33
*5626 FILLER_72_353
*5627 FILLER_72_385
*5628 FILLER_72_417
*5629 FILLER_72_449
*5630 FILLER_72_481
*5631 FILLER_72_513
*5632 FILLER_72_545
*5633 FILLER_72_577
*5634 FILLER_72_609
*5635 FILLER_72_625
*5636 FILLER_72_629
*5637 FILLER_72_632
*5638 FILLER_72_648
*5617 FILLER_72_65
*5639 FILLER_72_653
*5640 FILLER_72_669
*5618 FILLER_72_97
*5641 FILLER_73_1
*5645 FILLER_73_129
*5646 FILLER_73_161
*5647 FILLER_73_193
*5648 FILLER_73_225
*5649 FILLER_73_257
*5650 FILLER_73_289
*5651 FILLER_73_321
*5642 FILLER_73_33
*5652 FILLER_73_353
*5653 FILLER_73_385
*5654 FILLER_73_417
*5655 FILLER_73_449
*5656 FILLER_73_481
*5657 FILLER_73_513
*5658 FILLER_73_545
*5659 FILLER_73_577
*5660 FILLER_73_609
*5661 FILLER_73_641
*5643 FILLER_73_65
*5644 FILLER_73_97
*5662 FILLER_74_1
*5666 FILLER_74_129
*5667 FILLER_74_161
*5668 FILLER_74_193
*5669 FILLER_74_225
*5670 FILLER_74_257
*5671 FILLER_74_289
*5672 FILLER_74_321
*5663 FILLER_74_33
*5673 FILLER_74_353
*5674 FILLER_74_385
*5675 FILLER_74_417
*5676 FILLER_74_449
*5677 FILLER_74_481
*5678 FILLER_74_513
*5679 FILLER_74_545
*5680 FILLER_74_577
*5681 FILLER_74_609
*5682 FILLER_74_625
*5683 FILLER_74_629
*5684 FILLER_74_632
*5664 FILLER_74_65
*5685 FILLER_74_664
*5686 FILLER_74_672
*5665 FILLER_74_97
*5687 FILLER_75_1
*5691 FILLER_75_129
*5692 FILLER_75_161
*5693 FILLER_75_193
*5694 FILLER_75_225
*5695 FILLER_75_257
*5696 FILLER_75_289
*5697 FILLER_75_321
*5688 FILLER_75_33
*5698 FILLER_75_353
*5699 FILLER_75_385
*5700 FILLER_75_417
*5701 FILLER_75_449
*5702 FILLER_75_481
*5703 FILLER_75_513
*5704 FILLER_75_545
*5705 FILLER_75_577
*5706 FILLER_75_609
*5707 FILLER_75_641
*5689 FILLER_75_65
*5690 FILLER_75_97
*5708 FILLER_76_1
*5712 FILLER_76_129
*5713 FILLER_76_161
*5714 FILLER_76_193
*5715 FILLER_76_225
*5716 FILLER_76_257
*5717 FILLER_76_289
*5718 FILLER_76_321
*5709 FILLER_76_33
*5719 FILLER_76_353
*5720 FILLER_76_385
*5721 FILLER_76_417
*5722 FILLER_76_449
*5723 FILLER_76_481
*5724 FILLER_76_513
*5725 FILLER_76_545
*5726 FILLER_76_577
*5727 FILLER_76_609
*5728 FILLER_76_625
*5729 FILLER_76_629
*5730 FILLER_76_632
*5710 FILLER_76_65
*5731 FILLER_76_664
*5732 FILLER_76_672
*5711 FILLER_76_97
*5733 FILLER_77_1
*5737 FILLER_77_129
*5738 FILLER_77_161
*5739 FILLER_77_193
*5740 FILLER_77_225
*5741 FILLER_77_257
*5742 FILLER_77_289
*5743 FILLER_77_321
*5734 FILLER_77_33
*5744 FILLER_77_353
*5745 FILLER_77_385
*5746 FILLER_77_417
*5747 FILLER_77_449
*5748 FILLER_77_481
*5749 FILLER_77_513
*5750 FILLER_77_545
*5751 FILLER_77_577
*5752 FILLER_77_609
*5753 FILLER_77_641
*5735 FILLER_77_65
*5736 FILLER_77_97
*5754 FILLER_78_1
*5758 FILLER_78_129
*5759 FILLER_78_161
*5760 FILLER_78_193
*5761 FILLER_78_225
*5762 FILLER_78_257
*5763 FILLER_78_289
*5764 FILLER_78_321
*5755 FILLER_78_33
*5765 FILLER_78_353
*5766 FILLER_78_385
*5767 FILLER_78_417
*5768 FILLER_78_449
*5769 FILLER_78_481
*5770 FILLER_78_513
*5771 FILLER_78_545
*5772 FILLER_78_577
*5773 FILLER_78_609
*5774 FILLER_78_625
*5775 FILLER_78_629
*5776 FILLER_78_632
*5756 FILLER_78_65
*5777 FILLER_78_651
*5778 FILLER_78_667
*5779 FILLER_78_671
*5757 FILLER_78_97
*5780 FILLER_79_1
*5784 FILLER_79_129
*5785 FILLER_79_161
*5786 FILLER_79_193
*5787 FILLER_79_225
*5788 FILLER_79_257
*5789 FILLER_79_289
*5790 FILLER_79_321
*5781 FILLER_79_33
*5791 FILLER_79_353
*5792 FILLER_79_385
*5793 FILLER_79_417
*5794 FILLER_79_449
*5795 FILLER_79_481
*5796 FILLER_79_513
*5797 FILLER_79_545
*5798 FILLER_79_577
*5799 FILLER_79_609
*5800 FILLER_79_641
*5782 FILLER_79_65
*5783 FILLER_79_97
*2865 FILLER_7_1
*2869 FILLER_7_129
*2870 FILLER_7_161
*2871 FILLER_7_193
*2872 FILLER_7_225
*2873 FILLER_7_257
*2874 FILLER_7_289
*2875 FILLER_7_321
*2866 FILLER_7_33
*2876 FILLER_7_353
*2877 FILLER_7_385
*2878 FILLER_7_417
*2879 FILLER_7_449
*2880 FILLER_7_481
*2881 FILLER_7_513
*2882 FILLER_7_545
*2883 FILLER_7_577
*2884 FILLER_7_609
*2885 FILLER_7_641
*2867 FILLER_7_65
*2868 FILLER_7_97
*5801 FILLER_80_1
*5805 FILLER_80_129
*5806 FILLER_80_161
*5807 FILLER_80_193
*5808 FILLER_80_225
*5809 FILLER_80_257
*5810 FILLER_80_289
*5811 FILLER_80_321
*5802 FILLER_80_33
*5812 FILLER_80_353
*5813 FILLER_80_385
*5814 FILLER_80_417
*5815 FILLER_80_449
*5816 FILLER_80_481
*5817 FILLER_80_513
*5818 FILLER_80_545
*5819 FILLER_80_577
*5820 FILLER_80_609
*5821 FILLER_80_625
*5822 FILLER_80_629
*5823 FILLER_80_632
*5803 FILLER_80_65
*5824 FILLER_80_664
*5825 FILLER_80_672
*5804 FILLER_80_97
*5826 FILLER_81_1
*5830 FILLER_81_129
*5831 FILLER_81_161
*5832 FILLER_81_193
*5833 FILLER_81_225
*5834 FILLER_81_257
*5835 FILLER_81_289
*5836 FILLER_81_321
*5827 FILLER_81_33
*5837 FILLER_81_353
*5838 FILLER_81_385
*5839 FILLER_81_417
*5840 FILLER_81_449
*5841 FILLER_81_481
*5842 FILLER_81_513
*5843 FILLER_81_545
*5844 FILLER_81_577
*5845 FILLER_81_609
*5846 FILLER_81_641
*5828 FILLER_81_65
*5829 FILLER_81_97
*5847 FILLER_82_1
*5851 FILLER_82_129
*5852 FILLER_82_161
*5853 FILLER_82_193
*5854 FILLER_82_225
*5855 FILLER_82_257
*5856 FILLER_82_289
*5857 FILLER_82_321
*5848 FILLER_82_33
*5858 FILLER_82_353
*5859 FILLER_82_385
*5860 FILLER_82_417
*5861 FILLER_82_449
*5862 FILLER_82_481
*5863 FILLER_82_513
*5864 FILLER_82_545
*5865 FILLER_82_577
*5866 FILLER_82_609
*5867 FILLER_82_625
*5868 FILLER_82_629
*5869 FILLER_82_632
*5849 FILLER_82_65
*5870 FILLER_82_664
*5871 FILLER_82_672
*5850 FILLER_82_97
*5872 FILLER_83_1
*5876 FILLER_83_129
*5877 FILLER_83_161
*5878 FILLER_83_193
*5879 FILLER_83_225
*5880 FILLER_83_257
*5881 FILLER_83_289
*5882 FILLER_83_321
*5873 FILLER_83_33
*5883 FILLER_83_353
*5884 FILLER_83_385
*5885 FILLER_83_417
*5886 FILLER_83_449
*5887 FILLER_83_481
*5888 FILLER_83_513
*5889 FILLER_83_545
*5890 FILLER_83_577
*5891 FILLER_83_609
*5892 FILLER_83_641
*5874 FILLER_83_65
*5875 FILLER_83_97
*5893 FILLER_84_1
*5897 FILLER_84_129
*5898 FILLER_84_161
*5899 FILLER_84_193
*5900 FILLER_84_225
*5901 FILLER_84_257
*5902 FILLER_84_289
*5903 FILLER_84_321
*5894 FILLER_84_33
*5904 FILLER_84_353
*5905 FILLER_84_385
*5906 FILLER_84_417
*5907 FILLER_84_449
*5908 FILLER_84_481
*5909 FILLER_84_513
*5910 FILLER_84_545
*5911 FILLER_84_577
*5912 FILLER_84_609
*5913 FILLER_84_625
*5914 FILLER_84_629
*5915 FILLER_84_632
*5895 FILLER_84_65
*5916 FILLER_84_664
*5917 FILLER_84_672
*5896 FILLER_84_97
*5918 FILLER_85_1
*5922 FILLER_85_129
*5923 FILLER_85_161
*5924 FILLER_85_193
*5925 FILLER_85_225
*5926 FILLER_85_257
*5927 FILLER_85_289
*5928 FILLER_85_321
*5919 FILLER_85_33
*5929 FILLER_85_353
*5930 FILLER_85_385
*5931 FILLER_85_417
*5932 FILLER_85_449
*5933 FILLER_85_481
*5934 FILLER_85_513
*5935 FILLER_85_545
*5936 FILLER_85_577
*5937 FILLER_85_609
*5938 FILLER_85_641
*5920 FILLER_85_65
*5921 FILLER_85_97
*5939 FILLER_86_1
*5943 FILLER_86_129
*5944 FILLER_86_161
*5945 FILLER_86_193
*5946 FILLER_86_225
*5947 FILLER_86_257
*5948 FILLER_86_289
*5949 FILLER_86_321
*5940 FILLER_86_33
*5950 FILLER_86_353
*5951 FILLER_86_385
*5952 FILLER_86_417
*5953 FILLER_86_449
*5954 FILLER_86_481
*5955 FILLER_86_513
*5956 FILLER_86_545
*5957 FILLER_86_577
*5958 FILLER_86_609
*5959 FILLER_86_625
*5960 FILLER_86_629
*5961 FILLER_86_632
*5941 FILLER_86_65
*5962 FILLER_86_664
*5963 FILLER_86_672
*5942 FILLER_86_97
*5964 FILLER_87_1
*5968 FILLER_87_129
*5969 FILLER_87_161
*5970 FILLER_87_193
*5971 FILLER_87_225
*5972 FILLER_87_257
*5973 FILLER_87_289
*5974 FILLER_87_321
*5965 FILLER_87_33
*5975 FILLER_87_353
*5976 FILLER_87_385
*5977 FILLER_87_417
*5978 FILLER_87_449
*5979 FILLER_87_481
*5980 FILLER_87_513
*5981 FILLER_87_545
*5982 FILLER_87_577
*5983 FILLER_87_609
*5984 FILLER_87_641
*5966 FILLER_87_65
*5967 FILLER_87_97
*5985 FILLER_88_1
*5989 FILLER_88_129
*5990 FILLER_88_161
*5991 FILLER_88_193
*5992 FILLER_88_225
*5993 FILLER_88_257
*5994 FILLER_88_289
*5995 FILLER_88_321
*5986 FILLER_88_33
*5996 FILLER_88_353
*5997 FILLER_88_385
*5998 FILLER_88_417
*5999 FILLER_88_449
*6000 FILLER_88_481
*6001 FILLER_88_485
*6002 FILLER_88_487
*6003 FILLER_88_491
*6004 FILLER_88_498
*6005 FILLER_88_502
*6006 FILLER_88_507
*6007 FILLER_88_539
*6008 FILLER_88_571
*6009 FILLER_88_603
*6010 FILLER_88_619
*6011 FILLER_88_627
*6012 FILLER_88_632
*5987 FILLER_88_65
*6013 FILLER_88_664
*6014 FILLER_88_672
*5988 FILLER_88_97
*6015 FILLER_89_1
*6019 FILLER_89_129
*6020 FILLER_89_161
*6021 FILLER_89_193
*6022 FILLER_89_225
*6023 FILLER_89_257
*6024 FILLER_89_289
*6025 FILLER_89_321
*6016 FILLER_89_33
*6026 FILLER_89_353
*6027 FILLER_89_385
*6028 FILLER_89_417
*6029 FILLER_89_449
*6030 FILLER_89_481
*6031 FILLER_89_513
*6032 FILLER_89_545
*6033 FILLER_89_577
*6034 FILLER_89_609
*6035 FILLER_89_641
*6017 FILLER_89_65
*6018 FILLER_89_97
*2886 FILLER_8_1
*2890 FILLER_8_129
*2891 FILLER_8_161
*2892 FILLER_8_193
*2893 FILLER_8_225
*2894 FILLER_8_257
*2895 FILLER_8_289
*2896 FILLER_8_321
*2887 FILLER_8_33
*2897 FILLER_8_353
*2898 FILLER_8_385
*2899 FILLER_8_417
*2900 FILLER_8_449
*2901 FILLER_8_481
*2902 FILLER_8_513
*2903 FILLER_8_545
*2904 FILLER_8_577
*2905 FILLER_8_609
*2906 FILLER_8_625
*2907 FILLER_8_629
*2908 FILLER_8_632
*2888 FILLER_8_65
*2909 FILLER_8_664
*2910 FILLER_8_672
*2889 FILLER_8_97
*6036 FILLER_90_1
*6040 FILLER_90_129
*6041 FILLER_90_161
*6042 FILLER_90_193
*6043 FILLER_90_225
*6044 FILLER_90_257
*6045 FILLER_90_289
*6046 FILLER_90_321
*6037 FILLER_90_33
*6047 FILLER_90_353
*6048 FILLER_90_385
*6049 FILLER_90_417
*6050 FILLER_90_449
*6051 FILLER_90_481
*6052 FILLER_90_513
*6053 FILLER_90_545
*6054 FILLER_90_577
*6055 FILLER_90_609
*6056 FILLER_90_625
*6057 FILLER_90_629
*6058 FILLER_90_632
*6038 FILLER_90_65
*6059 FILLER_90_664
*6060 FILLER_90_672
*6039 FILLER_90_97
*2911 FILLER_9_1
*2915 FILLER_9_129
*2916 FILLER_9_161
*2917 FILLER_9_193
*2918 FILLER_9_225
*2919 FILLER_9_257
*2920 FILLER_9_292
*2921 FILLER_9_324
*2912 FILLER_9_33
*2922 FILLER_9_332
*2923 FILLER_9_336
*2924 FILLER_9_338
*2925 FILLER_9_342
*2926 FILLER_9_374
*2927 FILLER_9_406
*2928 FILLER_9_438
*2929 FILLER_9_470
*2930 FILLER_9_502
*2931 FILLER_9_534
*2932 FILLER_9_566
*2933 FILLER_9_598
*2934 FILLER_9_630
*2913 FILLER_9_65
*2935 FILLER_9_662
*2936 FILLER_9_670
*2937 FILLER_9_672
*2914 FILLER_9_97
*2516 PHY_EDGE_ROW_0_Left_91
*2425 PHY_EDGE_ROW_0_Right_0
*2526 PHY_EDGE_ROW_10_Left_101
*2435 PHY_EDGE_ROW_10_Right_10
*2527 PHY_EDGE_ROW_11_Left_102
*2436 PHY_EDGE_ROW_11_Right_11
*2528 PHY_EDGE_ROW_12_Left_103
*2437 PHY_EDGE_ROW_12_Right_12
*2529 PHY_EDGE_ROW_13_Left_104
*2438 PHY_EDGE_ROW_13_Right_13
*2530 PHY_EDGE_ROW_14_Left_105
*2439 PHY_EDGE_ROW_14_Right_14
*2531 PHY_EDGE_ROW_15_Left_106
*2440 PHY_EDGE_ROW_15_Right_15
*2532 PHY_EDGE_ROW_16_Left_107
*2441 PHY_EDGE_ROW_16_Right_16
*2533 PHY_EDGE_ROW_17_Left_108
*2442 PHY_EDGE_ROW_17_Right_17
*2534 PHY_EDGE_ROW_18_Left_109
*2443 PHY_EDGE_ROW_18_Right_18
*2535 PHY_EDGE_ROW_19_Left_110
*2444 PHY_EDGE_ROW_19_Right_19
*2517 PHY_EDGE_ROW_1_Left_92
*2426 PHY_EDGE_ROW_1_Right_1
*2536 PHY_EDGE_ROW_20_Left_111
*2445 PHY_EDGE_ROW_20_Right_20
*2537 PHY_EDGE_ROW_21_Left_112
*2446 PHY_EDGE_ROW_21_Right_21
*2538 PHY_EDGE_ROW_22_Left_113
*2447 PHY_EDGE_ROW_22_Right_22
*2539 PHY_EDGE_ROW_23_Left_114
*2448 PHY_EDGE_ROW_23_Right_23
*2540 PHY_EDGE_ROW_24_Left_115
*2449 PHY_EDGE_ROW_24_Right_24
*2541 PHY_EDGE_ROW_25_Left_116
*2450 PHY_EDGE_ROW_25_Right_25
*2542 PHY_EDGE_ROW_26_Left_117
*2451 PHY_EDGE_ROW_26_Right_26
*2543 PHY_EDGE_ROW_27_Left_118
*2452 PHY_EDGE_ROW_27_Right_27
*2544 PHY_EDGE_ROW_28_Left_119
*2453 PHY_EDGE_ROW_28_Right_28
*2545 PHY_EDGE_ROW_29_Left_120
*2454 PHY_EDGE_ROW_29_Right_29
*2518 PHY_EDGE_ROW_2_Left_93
*2427 PHY_EDGE_ROW_2_Right_2
*2546 PHY_EDGE_ROW_30_Left_121
*2455 PHY_EDGE_ROW_30_Right_30
*2547 PHY_EDGE_ROW_31_Left_122
*2456 PHY_EDGE_ROW_31_Right_31
*2548 PHY_EDGE_ROW_32_Left_123
*2457 PHY_EDGE_ROW_32_Right_32
*2549 PHY_EDGE_ROW_33_Left_124
*2458 PHY_EDGE_ROW_33_Right_33
*2550 PHY_EDGE_ROW_34_Left_125
*2459 PHY_EDGE_ROW_34_Right_34
*2551 PHY_EDGE_ROW_35_Left_126
*2460 PHY_EDGE_ROW_35_Right_35
*2552 PHY_EDGE_ROW_36_Left_127
*2461 PHY_EDGE_ROW_36_Right_36
*2553 PHY_EDGE_ROW_37_Left_128
*2462 PHY_EDGE_ROW_37_Right_37
*2554 PHY_EDGE_ROW_38_Left_129
*2463 PHY_EDGE_ROW_38_Right_38
*2555 PHY_EDGE_ROW_39_Left_130
*2464 PHY_EDGE_ROW_39_Right_39
*2519 PHY_EDGE_ROW_3_Left_94
*2428 PHY_EDGE_ROW_3_Right_3
*2556 PHY_EDGE_ROW_40_Left_131
*2465 PHY_EDGE_ROW_40_Right_40
*2557 PHY_EDGE_ROW_41_Left_132
*2466 PHY_EDGE_ROW_41_Right_41
*2558 PHY_EDGE_ROW_42_Left_133
*2467 PHY_EDGE_ROW_42_Right_42
*2559 PHY_EDGE_ROW_43_Left_134
*2468 PHY_EDGE_ROW_43_Right_43
*2560 PHY_EDGE_ROW_44_Left_135
*2469 PHY_EDGE_ROW_44_Right_44
*2561 PHY_EDGE_ROW_45_Left_136
*2470 PHY_EDGE_ROW_45_Right_45
*2562 PHY_EDGE_ROW_46_Left_137
*2471 PHY_EDGE_ROW_46_Right_46
*2563 PHY_EDGE_ROW_47_Left_138
*2472 PHY_EDGE_ROW_47_Right_47
*2564 PHY_EDGE_ROW_48_Left_139
*2473 PHY_EDGE_ROW_48_Right_48
*2565 PHY_EDGE_ROW_49_Left_140
*2474 PHY_EDGE_ROW_49_Right_49
*2520 PHY_EDGE_ROW_4_Left_95
*2429 PHY_EDGE_ROW_4_Right_4
*2566 PHY_EDGE_ROW_50_Left_141
*2475 PHY_EDGE_ROW_50_Right_50
*2567 PHY_EDGE_ROW_51_Left_142
*2476 PHY_EDGE_ROW_51_Right_51
*2568 PHY_EDGE_ROW_52_Left_143
*2477 PHY_EDGE_ROW_52_Right_52
*2569 PHY_EDGE_ROW_53_Left_144
*2478 PHY_EDGE_ROW_53_Right_53
*2570 PHY_EDGE_ROW_54_Left_145
*2479 PHY_EDGE_ROW_54_Right_54
*2571 PHY_EDGE_ROW_55_Left_146
*2480 PHY_EDGE_ROW_55_Right_55
*2572 PHY_EDGE_ROW_56_Left_147
*2481 PHY_EDGE_ROW_56_Right_56
*2573 PHY_EDGE_ROW_57_Left_148
*2482 PHY_EDGE_ROW_57_Right_57
*2574 PHY_EDGE_ROW_58_Left_149
*2483 PHY_EDGE_ROW_58_Right_58
*2575 PHY_EDGE_ROW_59_Left_150
*2484 PHY_EDGE_ROW_59_Right_59
*2521 PHY_EDGE_ROW_5_Left_96
*2430 PHY_EDGE_ROW_5_Right_5
*2576 PHY_EDGE_ROW_60_Left_151
*2485 PHY_EDGE_ROW_60_Right_60
*2577 PHY_EDGE_ROW_61_Left_152
*2486 PHY_EDGE_ROW_61_Right_61
*2578 PHY_EDGE_ROW_62_Left_153
*2487 PHY_EDGE_ROW_62_Right_62
*2579 PHY_EDGE_ROW_63_Left_154
*2488 PHY_EDGE_ROW_63_Right_63
*2580 PHY_EDGE_ROW_64_Left_155
*2489 PHY_EDGE_ROW_64_Right_64
*2581 PHY_EDGE_ROW_65_Left_156
*2490 PHY_EDGE_ROW_65_Right_65
*2582 PHY_EDGE_ROW_66_Left_157
*2491 PHY_EDGE_ROW_66_Right_66
*2583 PHY_EDGE_ROW_67_Left_158
*2492 PHY_EDGE_ROW_67_Right_67
*2584 PHY_EDGE_ROW_68_Left_159
*2493 PHY_EDGE_ROW_68_Right_68
*2585 PHY_EDGE_ROW_69_Left_160
*2494 PHY_EDGE_ROW_69_Right_69
*2522 PHY_EDGE_ROW_6_Left_97
*2431 PHY_EDGE_ROW_6_Right_6
*2586 PHY_EDGE_ROW_70_Left_161
*2495 PHY_EDGE_ROW_70_Right_70
*2587 PHY_EDGE_ROW_71_Left_162
*2496 PHY_EDGE_ROW_71_Right_71
*2588 PHY_EDGE_ROW_72_Left_163
*2497 PHY_EDGE_ROW_72_Right_72
*2589 PHY_EDGE_ROW_73_Left_164
*2498 PHY_EDGE_ROW_73_Right_73
*2590 PHY_EDGE_ROW_74_Left_165
*2499 PHY_EDGE_ROW_74_Right_74
*2591 PHY_EDGE_ROW_75_Left_166
*2500 PHY_EDGE_ROW_75_Right_75
*2592 PHY_EDGE_ROW_76_Left_167
*2501 PHY_EDGE_ROW_76_Right_76
*2593 PHY_EDGE_ROW_77_Left_168
*2502 PHY_EDGE_ROW_77_Right_77
*2594 PHY_EDGE_ROW_78_Left_169
*2503 PHY_EDGE_ROW_78_Right_78
*2595 PHY_EDGE_ROW_79_Left_170
*2504 PHY_EDGE_ROW_79_Right_79
*2523 PHY_EDGE_ROW_7_Left_98
*2432 PHY_EDGE_ROW_7_Right_7
*2596 PHY_EDGE_ROW_80_Left_171
*2505 PHY_EDGE_ROW_80_Right_80
*2597 PHY_EDGE_ROW_81_Left_172
*2506 PHY_EDGE_ROW_81_Right_81
*2598 PHY_EDGE_ROW_82_Left_173
*2507 PHY_EDGE_ROW_82_Right_82
*2599 PHY_EDGE_ROW_83_Left_174
*2508 PHY_EDGE_ROW_83_Right_83
*2600 PHY_EDGE_ROW_84_Left_175
*2509 PHY_EDGE_ROW_84_Right_84
*2601 PHY_EDGE_ROW_85_Left_176
*2510 PHY_EDGE_ROW_85_Right_85
*2602 PHY_EDGE_ROW_86_Left_177
*2511 PHY_EDGE_ROW_86_Right_86
*2603 PHY_EDGE_ROW_87_Left_178
*2512 PHY_EDGE_ROW_87_Right_87
*2604 PHY_EDGE_ROW_88_Left_179
*2513 PHY_EDGE_ROW_88_Right_88
*2605 PHY_EDGE_ROW_89_Left_180
*2514 PHY_EDGE_ROW_89_Right_89
*2524 PHY_EDGE_ROW_8_Left_99
*2433 PHY_EDGE_ROW_8_Right_8
*2606 PHY_EDGE_ROW_90_Left_181
*2515 PHY_EDGE_ROW_90_Right_90
*2525 PHY_EDGE_ROW_9_Left_100
*2434 PHY_EDGE_ROW_9_Right_9
*2607 TAP_TAPCELL_ROW_0_182
*2612 TAP_TAPCELL_ROW_10_187
*2613 TAP_TAPCELL_ROW_12_188
*2614 TAP_TAPCELL_ROW_14_189
*2615 TAP_TAPCELL_ROW_16_190
*2616 TAP_TAPCELL_ROW_18_191
*2617 TAP_TAPCELL_ROW_20_192
*2618 TAP_TAPCELL_ROW_22_193
*2619 TAP_TAPCELL_ROW_24_194
*2620 TAP_TAPCELL_ROW_26_195
*2621 TAP_TAPCELL_ROW_28_196
*2608 TAP_TAPCELL_ROW_2_183
*2622 TAP_TAPCELL_ROW_30_197
*2623 TAP_TAPCELL_ROW_32_198
*2624 TAP_TAPCELL_ROW_34_199
*2625 TAP_TAPCELL_ROW_36_200
*2626 TAP_TAPCELL_ROW_38_201
*2627 TAP_TAPCELL_ROW_40_202
*2628 TAP_TAPCELL_ROW_42_203
*2629 TAP_TAPCELL_ROW_44_204
*2630 TAP_TAPCELL_ROW_46_205
*2631 TAP_TAPCELL_ROW_48_206
*2609 TAP_TAPCELL_ROW_4_184
*2632 TAP_TAPCELL_ROW_50_207
*2633 TAP_TAPCELL_ROW_52_208
*2634 TAP_TAPCELL_ROW_54_209
*2635 TAP_TAPCELL_ROW_56_210
*2636 TAP_TAPCELL_ROW_58_211
*2637 TAP_TAPCELL_ROW_60_212
*2638 TAP_TAPCELL_ROW_62_213
*2639 TAP_TAPCELL_ROW_64_214
*2640 TAP_TAPCELL_ROW_66_215
*2641 TAP_TAPCELL_ROW_68_216
*2610 TAP_TAPCELL_ROW_6_185
*2642 TAP_TAPCELL_ROW_70_217
*2643 TAP_TAPCELL_ROW_72_218
*2644 TAP_TAPCELL_ROW_74_219
*2645 TAP_TAPCELL_ROW_76_220
*2646 TAP_TAPCELL_ROW_78_221
*2647 TAP_TAPCELL_ROW_80_222
*2648 TAP_TAPCELL_ROW_82_223
*2649 TAP_TAPCELL_ROW_84_224
*2650 TAP_TAPCELL_ROW_86_225
*2651 TAP_TAPCELL_ROW_88_226
*2611 TAP_TAPCELL_ROW_8_186
*2652 TAP_TAPCELL_ROW_90_227
*1325 U_COUNTER\.count\[0\]\$_DFF_PP0_
*1326 U_COUNTER\.count\[1\]\$_DFF_PP0_
*1327 U_COUNTER\.count\[2\]\$_DFF_PP0_
*1328 U_COUNTER\.count\[3\]\$_DFF_PP0_
*1329 U_RAM\.data_out\[0\]\$_DFF_P_
*1330 U_RAM\.data_out\[1\]\$_DFF_P_
*1331 U_RAM\.data_out\[2\]\$_DFF_P_
*1332 U_RAM\.data_out\[3\]\$_DFF_P_
*1333 U_RAM\.data_out\[4\]\$_DFF_P_
*1334 U_RAM\.data_out\[5\]\$_DFF_P_
*1335 U_RAM\.data_out\[6\]\$_DFF_P_
*1336 U_RAM\.data_out\[7\]\$_DFF_P_
*1337 U_RAM\.mem\[0\]\[0\]\$_DFFE_PP_
*1338 U_RAM\.mem\[0\]\[1\]\$_DFFE_PP_
*1339 U_RAM\.mem\[0\]\[2\]\$_DFFE_PP_
*1340 U_RAM\.mem\[0\]\[3\]\$_DFFE_PP_
*1341 U_RAM\.mem\[0\]\[4\]\$_DFFE_PP_
*1342 U_RAM\.mem\[0\]\[5\]\$_DFFE_PP_
*1343 U_RAM\.mem\[0\]\[6\]\$_DFFE_PP_
*1344 U_RAM\.mem\[0\]\[7\]\$_DFFE_PP_
*1345 U_RAM\.mem\[10\]\[0\]\$_DFFE_PP_
*1346 U_RAM\.mem\[10\]\[1\]\$_DFFE_PP_
*1347 U_RAM\.mem\[10\]\[2\]\$_DFFE_PP_
*1348 U_RAM\.mem\[10\]\[3\]\$_DFFE_PP_
*1349 U_RAM\.mem\[10\]\[4\]\$_DFFE_PP_
*1350 U_RAM\.mem\[10\]\[5\]\$_DFFE_PP_
*1351 U_RAM\.mem\[10\]\[6\]\$_DFFE_PP_
*1352 U_RAM\.mem\[10\]\[7\]\$_DFFE_PP_
*1353 U_RAM\.mem\[11\]\[0\]\$_DFFE_PP_
*1354 U_RAM\.mem\[11\]\[1\]\$_DFFE_PP_
*1355 U_RAM\.mem\[11\]\[2\]\$_DFFE_PP_
*1356 U_RAM\.mem\[11\]\[3\]\$_DFFE_PP_
*1357 U_RAM\.mem\[11\]\[4\]\$_DFFE_PP_
*1358 U_RAM\.mem\[11\]\[5\]\$_DFFE_PP_
*1359 U_RAM\.mem\[11\]\[6\]\$_DFFE_PP_
*1360 U_RAM\.mem\[11\]\[7\]\$_DFFE_PP_
*1361 U_RAM\.mem\[12\]\[0\]\$_DFFE_PP_
*1362 U_RAM\.mem\[12\]\[1\]\$_DFFE_PP_
*1363 U_RAM\.mem\[12\]\[2\]\$_DFFE_PP_
*1364 U_RAM\.mem\[12\]\[3\]\$_DFFE_PP_
*1365 U_RAM\.mem\[12\]\[4\]\$_DFFE_PP_
*1366 U_RAM\.mem\[12\]\[5\]\$_DFFE_PP_
*1367 U_RAM\.mem\[12\]\[6\]\$_DFFE_PP_
*1368 U_RAM\.mem\[12\]\[7\]\$_DFFE_PP_
*1369 U_RAM\.mem\[13\]\[0\]\$_DFFE_PP_
*1370 U_RAM\.mem\[13\]\[1\]\$_DFFE_PP_
*1371 U_RAM\.mem\[13\]\[2\]\$_DFFE_PP_
*1372 U_RAM\.mem\[13\]\[3\]\$_DFFE_PP_
*1373 U_RAM\.mem\[13\]\[4\]\$_DFFE_PP_
*1374 U_RAM\.mem\[13\]\[5\]\$_DFFE_PP_
*1375 U_RAM\.mem\[13\]\[6\]\$_DFFE_PP_
*1376 U_RAM\.mem\[13\]\[7\]\$_DFFE_PP_
*1377 U_RAM\.mem\[14\]\[0\]\$_DFFE_PP_
*1378 U_RAM\.mem\[14\]\[1\]\$_DFFE_PP_
*1379 U_RAM\.mem\[14\]\[2\]\$_DFFE_PP_
*1380 U_RAM\.mem\[14\]\[3\]\$_DFFE_PP_
*1381 U_RAM\.mem\[14\]\[4\]\$_DFFE_PP_
*1382 U_RAM\.mem\[14\]\[5\]\$_DFFE_PP_
*1383 U_RAM\.mem\[14\]\[6\]\$_DFFE_PP_
*1384 U_RAM\.mem\[14\]\[7\]\$_DFFE_PP_
*1385 U_RAM\.mem\[15\]\[0\]\$_DFFE_PP_
*1386 U_RAM\.mem\[15\]\[1\]\$_DFFE_PP_
*1387 U_RAM\.mem\[15\]\[2\]\$_DFFE_PP_
*1388 U_RAM\.mem\[15\]\[3\]\$_DFFE_PP_
*1389 U_RAM\.mem\[15\]\[4\]\$_DFFE_PP_
*1390 U_RAM\.mem\[15\]\[5\]\$_DFFE_PP_
*1391 U_RAM\.mem\[15\]\[6\]\$_DFFE_PP_
*1392 U_RAM\.mem\[15\]\[7\]\$_DFFE_PP_
*1393 U_RAM\.mem\[1\]\[0\]\$_DFFE_PP_
*1394 U_RAM\.mem\[1\]\[1\]\$_DFFE_PP_
*1395 U_RAM\.mem\[1\]\[2\]\$_DFFE_PP_
*1396 U_RAM\.mem\[1\]\[3\]\$_DFFE_PP_
*1397 U_RAM\.mem\[1\]\[4\]\$_DFFE_PP_
*1398 U_RAM\.mem\[1\]\[5\]\$_DFFE_PP_
*1399 U_RAM\.mem\[1\]\[6\]\$_DFFE_PP_
*1400 U_RAM\.mem\[1\]\[7\]\$_DFFE_PP_
*1401 U_RAM\.mem\[2\]\[0\]\$_DFFE_PP_
*1402 U_RAM\.mem\[2\]\[1\]\$_DFFE_PP_
*1403 U_RAM\.mem\[2\]\[2\]\$_DFFE_PP_
*1404 U_RAM\.mem\[2\]\[3\]\$_DFFE_PP_
*1405 U_RAM\.mem\[2\]\[4\]\$_DFFE_PP_
*1406 U_RAM\.mem\[2\]\[5\]\$_DFFE_PP_
*1407 U_RAM\.mem\[2\]\[6\]\$_DFFE_PP_
*1408 U_RAM\.mem\[2\]\[7\]\$_DFFE_PP_
*1409 U_RAM\.mem\[3\]\[0\]\$_DFFE_PP_
*1410 U_RAM\.mem\[3\]\[1\]\$_DFFE_PP_
*1411 U_RAM\.mem\[3\]\[2\]\$_DFFE_PP_
*1412 U_RAM\.mem\[3\]\[3\]\$_DFFE_PP_
*1413 U_RAM\.mem\[3\]\[4\]\$_DFFE_PP_
*1414 U_RAM\.mem\[3\]\[5\]\$_DFFE_PP_
*1415 U_RAM\.mem\[3\]\[6\]\$_DFFE_PP_
*1416 U_RAM\.mem\[3\]\[7\]\$_DFFE_PP_
*1417 U_RAM\.mem\[4\]\[0\]\$_DFFE_PP_
*1418 U_RAM\.mem\[4\]\[1\]\$_DFFE_PP_
*1419 U_RAM\.mem\[4\]\[2\]\$_DFFE_PP_
*1420 U_RAM\.mem\[4\]\[3\]\$_DFFE_PP_
*1421 U_RAM\.mem\[4\]\[4\]\$_DFFE_PP_
*1422 U_RAM\.mem\[4\]\[5\]\$_DFFE_PP_
*1423 U_RAM\.mem\[4\]\[6\]\$_DFFE_PP_
*1424 U_RAM\.mem\[4\]\[7\]\$_DFFE_PP_
*1425 U_RAM\.mem\[5\]\[0\]\$_DFFE_PP_
*1426 U_RAM\.mem\[5\]\[1\]\$_DFFE_PP_
*1427 U_RAM\.mem\[5\]\[2\]\$_DFFE_PP_
*1428 U_RAM\.mem\[5\]\[3\]\$_DFFE_PP_
*1429 U_RAM\.mem\[5\]\[4\]\$_DFFE_PP_
*1430 U_RAM\.mem\[5\]\[5\]\$_DFFE_PP_
*1431 U_RAM\.mem\[5\]\[6\]\$_DFFE_PP_
*1432 U_RAM\.mem\[5\]\[7\]\$_DFFE_PP_
*1433 U_RAM\.mem\[6\]\[0\]\$_DFFE_PP_
*1434 U_RAM\.mem\[6\]\[1\]\$_DFFE_PP_
*1435 U_RAM\.mem\[6\]\[2\]\$_DFFE_PP_
*1436 U_RAM\.mem\[6\]\[3\]\$_DFFE_PP_
*1437 U_RAM\.mem\[6\]\[4\]\$_DFFE_PP_
*1438 U_RAM\.mem\[6\]\[5\]\$_DFFE_PP_
*1439 U_RAM\.mem\[6\]\[6\]\$_DFFE_PP_
*1440 U_RAM\.mem\[6\]\[7\]\$_DFFE_PP_
*1441 U_RAM\.mem\[7\]\[0\]\$_DFFE_PP_
*1442 U_RAM\.mem\[7\]\[1\]\$_DFFE_PP_
*1443 U_RAM\.mem\[7\]\[2\]\$_DFFE_PP_
*1444 U_RAM\.mem\[7\]\[3\]\$_DFFE_PP_
*1445 U_RAM\.mem\[7\]\[4\]\$_DFFE_PP_
*1446 U_RAM\.mem\[7\]\[5\]\$_DFFE_PP_
*1447 U_RAM\.mem\[7\]\[6\]\$_DFFE_PP_
*1448 U_RAM\.mem\[7\]\[7\]\$_DFFE_PP_
*1449 U_RAM\.mem\[8\]\[0\]\$_DFFE_PP_
*1450 U_RAM\.mem\[8\]\[1\]\$_DFFE_PP_
*1451 U_RAM\.mem\[8\]\[2\]\$_DFFE_PP_
*1452 U_RAM\.mem\[8\]\[3\]\$_DFFE_PP_
*1453 U_RAM\.mem\[8\]\[4\]\$_DFFE_PP_
*1454 U_RAM\.mem\[8\]\[5\]\$_DFFE_PP_
*1455 U_RAM\.mem\[8\]\[6\]\$_DFFE_PP_
*1456 U_RAM\.mem\[8\]\[7\]\$_DFFE_PP_
*1457 U_RAM\.mem\[9\]\[0\]\$_DFFE_PP_
*1458 U_RAM\.mem\[9\]\[1\]\$_DFFE_PP_
*1459 U_RAM\.mem\[9\]\[2\]\$_DFFE_PP_
*1460 U_RAM\.mem\[9\]\[3\]\$_DFFE_PP_
*1461 U_RAM\.mem\[9\]\[4\]\$_DFFE_PP_
*1462 U_RAM\.mem\[9\]\[5\]\$_DFFE_PP_
*1463 U_RAM\.mem\[9\]\[6\]\$_DFFE_PP_
*1464 U_RAM\.mem\[9\]\[7\]\$_DFFE_PP_
*1465 _1133_
*1466 _1134_
*1468 _1136_
*1470 _1138_
*1471 _1139_
*1473 _1141_
*1474 _1142_
*1475 _1143_
*1476 _1144_
*1477 _1145_
*1478 _1146_
*1479 _1147_
*1480 _1148_
*1481 _1149_
*1482 _1150_
*1483 _1151_
*1484 _1152_
*1485 _1153_
*1486 _1154_
*1487 _1155_
*1488 _1156_
*1489 _1157_
*1491 _1159_
*1492 _1160_
*1493 _1161_
*1494 _1162_
*1495 _1163_
*1496 _1164_
*1497 _1165_
*1498 _1166_
*1499 _1167_
*1500 _1168_
*1501 _1169_
*1502 _1170_
*1503 _1171_
*1504 _1172_
*1505 _1173_
*1507 _1175_
*1509 _1177_
*1510 _1178_
*1511 _1179_
*1512 _1180_
*1513 _1181_
*1514 _1182_
*1515 _1183_
*1516 _1184_
*1517 _1185_
*1518 _1186_
*1519 _1187_
*1521 _1189_
*1522 _1190_
*1523 _1191_
*1524 _1192_
*1525 _1193_
*1526 _1194_
*1527 _1195_
*1528 _1196_
*1529 _1197_
*1530 _1198_
*1531 _1199_
*1532 _1200_
*1533 _1201_
*1534 _1202_
*1535 _1203_
*1536 _1204_
*1537 _1205_
*1538 _1206_
*1539 _1207_
*1542 _1210_
*1543 _1211_
*1544 _1212_
*1545 _1213_
*1546 _1214_
*1549 _1217_
*1550 _1218_
*1551 _1219_
*1552 _1220_
*1553 _1221_
*1554 _1222_
*1555 _1223_
*1556 _1224_
*1557 _1225_
*1558 _1226_
*1559 _1227_
*1560 _1228_
*1561 _1229_
*1562 _1230_
*1563 _1231_
*1564 _1232_
*1565 _1233_
*1566 _1234_
*1567 _1235_
*1568 _1236_
*1569 _1237_
*1570 _1238_
*1571 _1239_
*1572 _1240_
*1573 _1241_
*1575 _1243_
*1576 _1244_
*1577 _1245_
*1578 _1246_
*1579 _1247_
*1580 _1248_
*1581 _1249_
*1582 _1250_
*1583 _1251_
*1584 _1252_
*1585 _1253_
*1586 _1254_
*1587 _1255_
*1588 _1256_
*1589 _1257_
*1590 _1258_
*1591 _1259_
*1592 _1260_
*1593 _1261_
*1594 _1262_
*1595 _1263_
*1596 _1264_
*1597 _1265_
*1598 _1266_
*1599 _1267_
*1600 _1268_
*1601 _1269_
*1603 _1271_
*1604 _1272_
*1605 _1273_
*1606 _1274_
*1607 _1275_
*1608 _1276_
*1609 _1277_
*1610 _1278_
*1611 _1279_
*1612 _1280_
*1613 _1281_
*1614 _1282_
*1615 _1283_
*1616 _1284_
*1617 _1285_
*1618 _1286_
*1620 _1288_
*1621 _1289_
*1622 _1290_
*1623 _1291_
*1624 _1292_
*1625 _1293_
*1626 _1294_
*1627 _1295_
*1628 _1296_
*1629 _1297_
*1630 _1298_
*1631 _1299_
*1632 _1300_
*1633 _1301_
*1634 _1302_
*1635 _1303_
*1636 _1304_
*1637 _1305_
*1638 _1306_
*1639 _1307_
*1640 _1308_
*1641 _1309_
*1643 _1311_
*1644 _1312_
*1645 _1313_
*1646 _1314_
*1647 _1315_
*1648 _1316_
*1649 _1317_
*1650 _1318_
*1651 _1319_
*1652 _1320_
*1653 _1321_
*1654 _1322_
*1655 _1323_
*1656 _1324_
*1657 _1325_
*1658 _1326_
*1659 _1327_
*1660 _1328_
*1661 _1329_
*1662 _1330_
*1663 _1331_
*1664 _1332_
*1665 _1333_
*1666 _1334_
*1668 _1336_
*1669 _1337_
*1670 _1338_
*1671 _1339_
*1672 _1340_
*1673 _1341_
*1674 _1342_
*1675 _1343_
*1676 _1344_
*1677 _1345_
*1678 _1346_
*1679 _1347_
*1680 _1348_
*1681 _1349_
*1682 _1350_
*1683 _1351_
*1684 _1352_
*1686 _1354_
*1687 _1355_
*1688 _1356_
*1689 _1357_
*1690 _1358_
*1691 _1359_
*1692 _1360_
*1693 _1361_
*1694 _1362_
*1695 _1363_
*1696 _1364_
*1697 _1365_
*1698 _1366_
*1699 _1367_
*1700 _1368_
*1701 _1369_
*1703 _1371_
*1704 _1372_
*1705 _1373_
*1706 _1374_
*1707 _1375_
*1708 _1376_
*1709 _1377_
*1710 _1378_
*1711 _1379_
*1712 _1380_
*1713 _1381_
*1714 _1382_
*1715 _1383_
*1716 _1384_
*1717 _1385_
*1718 _1386_
*1719 _1387_
*1720 _1388_
*1721 _1389_
*1722 _1390_
*1723 _1391_
*1724 _1392_
*1726 _1394_
*1727 _1395_
*1728 _1396_
*1729 _1397_
*1730 _1398_
*1731 _1399_
*1732 _1400_
*1734 _1402_
*1736 _1404_
*1741 _1409_
*1742 _1410_
*1745 _1413_
*1747 _1415_
*1748 _1416_
*1749 _1417_
*1750 _1418_
*1751 _1419_
*1753 _1421_
*1756 _1424_
*1759 _1427_
*1761 _1429_
*1762 _1430_
*1763 _1431_
*1765 _1433_
*1767 _1435_
*1770 _1438_
*1771 _1439_
*1772 _1440_
*1773 _1441_
*1774 _1442_
*1775 _1443_
*1776 _1444_
*1777 _1445_
*1779 _1447_
*1780 _1448_
*1781 _1449_
*1782 _1450_
*1783 _1451_
*1784 _1452_
*1785 _1453_
*1786 _1454_
*1787 _1455_
*1788 _1456_
*1789 _1457_
*1790 _1458_
*1791 _1459_
*1792 _1460_
*1793 _1461_
*1794 _1462_
*1795 _1463_
*1796 _1464_
*1797 _1465_
*1799 _1467_
*1800 _1468_
*1801 _1469_
*1802 _1470_
*1803 _1471_
*1804 _1472_
*1805 _1473_
*1806 _1474_
*1807 _1475_
*1808 _1476_
*1809 _1477_
*1810 _1478_
*1811 _1479_
*1812 _1480_
*1813 _1481_
*1814 _1482_
*1815 _1483_
*1816 _1484_
*1817 _1485_
*1818 _1486_
*1819 _1487_
*1820 _1488_
*1821 _1489_
*1822 _1490_
*1823 _1491_
*1824 _1492_
*1825 _1493_
*1826 _1494_
*1827 _1495_
*1828 _1496_
*1829 _1497_
*1830 _1498_
*1831 _1499_
*1832 _1500_
*1833 _1501_
*1834 _1502_
*1835 _1503_
*1836 _1504_
*1837 _1505_
*1838 _1506_
*1839 _1507_
*1840 _1508_
*1841 _1509_
*1842 _1510_
*1843 _1511_
*1844 _1512_
*1845 _1513_
*1846 _1514_
*1847 _1515_
*1848 _1516_
*1849 _1517_
*1850 _1518_
*1851 _1519_
*1852 _1520_
*1853 _1521_
*1854 _1522_
*1855 _1523_
*1856 _1524_
*1857 _1525_
*1858 _1526_
*1859 _1527_
*1860 _1528_
*1861 _1529_
*1862 _1530_
*1863 _1531_
*1864 _1532_
*1865 _1533_
*1866 _1534_
*1867 _1535_
*1868 _1536_
*1869 _1537_
*1870 _1538_
*1871 _1539_
*1872 _1540_
*1873 _1541_
*1874 _1542_
*1875 _1543_
*1876 _1544_
*1877 _1545_
*1878 _1546_
*1879 _1547_
*1880 _1548_
*1881 _1549_
*1882 _1550_
*1883 _1551_
*1884 _1552_
*1885 _1553_
*1886 _1554_
*1887 _1555_
*1888 _1556_
*1889 _1557_
*1890 _1558_
*1891 _1559_
*1892 _1560_
*1893 _1561_
*1894 _1562_
*1895 _1563_
*1896 _1564_
*1897 _1565_
*1898 _1566_
*1899 _1567_
*1900 _1568_
*1901 _1569_
*1902 _1570_
*1903 _1571_
*1904 _1572_
*1905 _1573_
*1906 _1574_
*1907 _1575_
*1908 _1576_
*1909 _1577_
*1910 _1578_
*1911 _1579_
*1912 _1580_
*1913 _1581_
*1914 _1582_
*1915 _1583_
*1916 _1584_
*1917 _1585_
*1918 _1586_
*1919 _1587_
*1920 _1588_
*1921 _1589_
*1922 _1590_
*1923 _1591_
*1924 _1592_
*1925 _1593_
*1926 _1594_
*1927 _1595_
*1928 _1596_
*1929 _1597_
*1930 _1598_
*1931 _1599_
*1932 _1600_
*1933 _1601_
*1934 _1602_
*1935 _1603_
*1936 _1604_
*1937 _1605_
*1938 _1606_
*1939 _1607_
*1941 _1609_
*1942 _1610_
*1943 _1611_
*1944 _1612_
*1945 _1613_
*1946 _1614_
*1947 _1615_
*1948 _1616_
*1949 _1617_
*1950 _1618_
*1951 _1619_
*1952 _1620_
*1953 _1621_
*1954 _1622_
*1955 _1623_
*1956 _1624_
*1957 _1625_
*1958 _1626_
*1959 _1627_
*1960 _1628_
*1961 _1629_
*1962 _1630_
*1963 _1631_
*1964 _1632_
*1965 _1633_
*1966 _1634_
*1967 _1635_
*1968 _1636_
*1969 _1637_
*1970 _1638_
*1971 _1639_
*1972 _1640_
*1973 _1641_
*1974 _1642_
*1975 _1643_
*1976 _1644_
*1977 _1645_
*1978 _1646_
*1979 _1647_
*1980 _1648_
*1981 _1649_
*1982 _1650_
*1983 _1651_
*1984 _1652_
*1985 _1653_
*1986 _1654_
*1987 _1655_
*1988 _1656_
*1989 _1657_
*1990 _1658_
*1991 _1659_
*1992 _1660_
*1993 _1661_
*1994 _1662_
*1995 _1663_
*1996 _1664_
*1997 _1665_
*1998 _1666_
*1999 _1667_
*2000 _1668_
*2001 _1669_
*2002 _1670_
*2003 _1671_
*2004 _1672_
*2005 _1673_
*2006 _1674_
*2007 _1675_
*2008 _1676_
*2009 _1677_
*2010 _1678_
*2011 _1679_
*2012 _1680_
*2013 _1681_
*2014 _1682_
*2015 _1683_
*2016 _1684_
*2017 _1685_
*2018 _1686_
*2019 _1687_
*2020 _1688_
*2021 _1689_
*2022 _1690_
*2023 _1691_
*2024 _1692_
*2025 _1693_
*2026 _1694_
*2027 _1695_
*2028 _1696_
*2029 _1697_
*2030 _1698_
*2031 _1699_
*2032 _1700_
*2033 _1701_
*2034 _1702_
*2035 _1703_
*2036 _1704_
*2037 _1705_
*2038 _1706_
*2039 _1707_
*2040 _1708_
*2041 _1709_
*2042 _1710_
*2043 _1711_
*2044 _1712_
*2045 _1713_
*2046 _1714_
*2047 _1715_
*2048 _1716_
*2049 _1717_
*2050 _1718_
*2051 _1719_
*2052 _1720_
*2053 _1721_
*2054 _1722_
*2055 _1723_
*2056 _1724_
*2057 _1725_
*2058 _1726_
*2059 _1727_
*2060 _1728_
*2061 _1729_
*2062 _1730_
*2063 _1731_
*2064 _1732_
*2065 _1733_
*2066 _1734_
*2067 _1735_
*2068 _1736_
*2069 _1737_
*2070 _1738_
*2071 _1739_
*2072 _1740_
*2073 _1741_
*2074 _1742_
*2075 _1743_
*2076 _1744_
*2077 _1745_
*2078 _1746_
*2079 _1747_
*2080 _1748_
*2081 _1749_
*2082 _1750_
*2083 _1751_
*2084 _1752_
*2085 _1753_
*2086 _1754_
*2087 _1755_
*2088 _1756_
*2089 _1757_
*2090 _1758_
*2091 _1759_
*2092 _1760_
*2093 _1761_
*2094 _1762_
*2095 _1763_
*2096 _1764_
*2097 _1765_
*2098 _1766_
*2099 _1767_
*2100 _1768_
*2101 _1769_
*2102 _1770_
*2103 _1771_
*2104 _1772_
*2105 _1773_
*2106 _1774_
*2107 _1775_
*2108 _1776_
*2109 _1777_
*2110 _1778_
*2111 _1779_
*2112 _1780_
*2113 _1781_
*2114 _1782_
*2115 _1783_
*2116 _1784_
*2117 _1785_
*2118 _1786_
*2119 _1787_
*2120 _1788_
*2121 _1789_
*2122 _1790_
*2123 _1791_
*2124 _1792_
*2125 _1793_
*2126 _1794_
*2127 _1795_
*2128 _1796_
*2129 _1797_
*2130 _1798_
*2131 _1799_
*2132 _1800_
*2133 _1801_
*2134 _1802_
*2135 _1803_
*2136 _1804_
*2137 _1805_
*2138 _1806_
*2139 _1807_
*2140 _1808_
*2141 _1809_
*2142 _1810_
*2143 _1811_
*2144 _1812_
*2145 _1813_
*2146 _1814_
*2147 _1815_
*2148 _1816_
*2149 _1817_
*2150 _1818_
*2151 _1819_
*2152 _1820_
*2153 _1821_
*2154 _1822_
*2155 _1823_
*2156 _1824_
*2157 _1825_
*2158 _1826_
*2159 _1827_
*2160 _1828_
*2161 _1829_
*2162 _1830_
*2163 _1831_
*2164 _1832_
*2165 _1833_
*2166 _1834_
*2167 _1835_
*2168 _1836_
*2169 _1837_
*2170 _1838_
*2171 _1839_
*2172 _1840_
*2173 _1841_
*2174 _1842_
*2175 _1843_
*2176 _1844_
*2177 _1845_
*2178 _1846_
*2179 _1847_
*2180 _1848_
*2181 _1849_
*2182 _1850_
*2183 _1851_
*2184 _1852_
*2185 _1853_
*2186 _1854_
*2187 _1855_
*2188 _1856_
*2189 _1857_
*2190 _1858_
*2191 _1859_
*2192 _1860_
*2193 _1861_
*2194 _1862_
*2195 _1863_
*2196 _1864_
*2197 _1865_
*2198 _1866_
*2199 _1867_
*2200 _1868_
*2201 _1869_
*2202 _1870_
*2203 _1871_
*2204 _1872_
*2205 _1873_
*2206 _1874_
*2207 _1875_
*2208 _1876_
*2209 _1877_
*2210 _1878_
*2211 _1879_
*2212 _1880_
*2213 _1881_
*2214 _1882_
*2215 _1883_
*2216 _1884_
*2217 _1885_
*2218 _1886_
*2219 _1887_
*2220 _1888_
*2221 _1889_
*2222 _1890_
*2223 _1891_
*2224 _1892_
*2225 _1893_
*2226 _1894_
*2227 _1895_
*2228 _1896_
*2229 _1897_
*2230 _1898_
*2231 _1899_
*2232 _1900_
*2233 _1901_
*2234 _1902_
*2235 _1903_
*2236 _1904_
*2237 _1905_
*2238 _1906_
*2239 _1907_
*2240 _1908_
*2241 _1909_
*2242 _1910_
*2243 _1911_
*2244 _1912_
*2245 _1913_
*2246 _1914_
*2247 _1915_
*2248 _1916_
*2249 _1917_
*2250 _1918_
*2251 _1919_
*2252 _1920_
*2253 _1921_
*2254 _1922_
*2255 _1923_
*2256 _1924_
*2257 _1925_
*2258 _1926_
*2259 _1927_
*2260 _1928_
*2261 _1929_
*2262 _1930_
*2263 _1931_
*2264 _1932_
*2265 _1933_
*2266 _1934_
*2267 _1935_
*2268 _1936_
*2269 _1937_
*2270 _1938_
*2271 _1939_
*2272 _1940_
*2273 _1941_
*2274 _1942_
*2275 _1943_
*2276 _1944_
*2277 _1945_
*2278 _1946_
*2279 _1947_
*2280 _1948_
*2281 _1949_
*2282 _1950_
*2283 _1951_
*2284 _1952_
*2285 _1953_
*2286 _1954_
*2287 _1955_
*2288 _1956_
*2289 _1957_
*2290 _1958_
*2291 _1959_
*2292 _1960_
*2293 _1961_
*2294 _1962_
*2295 _1963_
*2296 _1964_
*2297 _1965_
*2298 _1966_
*2299 _1967_
*2300 _1968_
*2301 _1969_
*2302 _1970_
*2303 _1971_
*2304 _1972_
*2305 _1973_
*2306 _1974_
*2307 _1975_
*2308 _1976_
*2309 _1977_
*2310 _1978_
*2311 _1979_
*2312 _1980_
*2313 _1981_
*2314 _1982_
*2315 _1983_
*2316 _1984_
*2317 _1985_
*2318 _1986_
*2319 _1987_
*2320 _1988_
*2321 _1989_
*2322 _1990_
*2324 _1992_
*2325 _1993_
*2326 _1994_
*2327 _1995_
*2328 _1996_
*2329 _1997_
*2330 _1998_
*2331 _1999_
*2332 _2000_
*2333 _2001_
*2334 _2002_
*2335 _2003_
*2336 _2004_
*2337 _2005_
*2338 _2006_
*2339 _2007_
*2340 _2008_
*2341 _2009_
*2342 _2010_
*2343 _2011_
*2344 _2012_
*2345 _2013_
*2346 _2014_
*2347 _2015_
*2348 _2016_
*2349 _2017_
*2350 _2018_
*2351 _2019_
*2352 _2020_
*2353 _2021_
*2354 _2022_
*2355 _2023_
*2356 _2024_
*2357 _2025_
*2358 _2026_
*2359 _2027_
*2360 _2028_
*2361 _2029_
*2362 _2030_
*2363 _2031_
*2364 _2032_
*2365 _2033_
*2366 _2034_
*2367 _2035_
*2368 _2036_
*2369 _2037_
*2370 _2038_
*2371 _2039_
*2372 _2040_
*2373 _2041_
*2374 _2042_
*2375 _2043_
*2376 _2044_
*2377 _2045_
*2378 _2046_
*2379 _2047_
*2380 _2048_
*2381 _2049_
*2382 _2050_
*2383 _2051_
*2384 _2052_
*2385 _2053_
*2386 _2054_
*2387 _2055_
*2388 _2056_
*2389 _2057_
*2390 _2058_
*2391 _2059_
*2392 _2060_
*2393 _2061_
*2394 _2062_
*2395 _2063_
*2396 _2064_
*2397 _2065_
*2398 _2066_
*2399 _2067_
*2400 _2068_
*2401 _2069_
*2402 _2070_
*2403 _2071_
*2404 _2072_
*2405 _2073_
*2406 _2074_
*2407 _2075_
*2408 _2076_
*2409 _2077_
*2410 _2078_
*2411 _2079_
*2412 _2080_
*2413 _2081_
*2414 _2082_
*2415 _2083_
*2416 _2084_
*2417 _2085_
*2418 _2086_
*2419 _2087_
*2420 _2088_
*2421 _2089_
*2422 _2090_
*2423 _2091_
*2424 _2092_
*1472 clkbuf_0_clk
*2654 clkbuf_4_0_0_clk
*2664 clkbuf_4_10_0_clk
*2665 clkbuf_4_11_0_clk
*2666 clkbuf_4_12_0_clk
*2667 clkbuf_4_13_0_clk
*2668 clkbuf_4_14_0_clk
*2669 clkbuf_4_15_0_clk
*2655 clkbuf_4_1_0_clk
*2656 clkbuf_4_2_0_clk
*2657 clkbuf_4_3_0_clk
*2658 clkbuf_4_4_0_clk
*2659 clkbuf_4_5_0_clk
*2660 clkbuf_4_6_0_clk
*2661 clkbuf_4_7_0_clk
*2662 clkbuf_4_8_0_clk
*2663 clkbuf_4_9_0_clk
*2670 clkload0
*2671 clkload1
*2680 clkload10
*2681 clkload11
*2682 clkload12
*2683 clkload13
*2684 clkload14
*2672 clkload2
*2673 clkload3
*2674 clkload4
*2675 clkload5
*2676 clkload6
*2677 clkload7
*2678 clkload8
*2679 clkload9
*2685 hold49
*2686 hold50
*2687 hold51
*2688 hold52
*2689 hold53
*2323 input1
*1758 input10
*1757 input11
*1755 input12
*1754 input13
*1752 input14
*1746 input15
*1744 input16
*1743 input17
*1740 input18
*1940 input2
*1798 input3
*1778 input4
*1769 input5
*1768 input6
*1766 input7
*1764 input8
*1760 input9
*1739 output19
*1738 output20
*1737 output21
*1735 output22
*1733 output23
*1725 output24
*1702 output25
*1685 output26
*1667 output27
*1642 output28
*1619 output29
*1602 output30
*1574 output31
*1548 output32
*1547 output33
*1541 output34
*1540 output35
*1520 output36
*1508 output37
*1506 output38
*1490 place45
*1467 place46
*1469 place47
*2653 place48

*PORTS
A[0] I
A[1] I
A[2] I
A[3] I
A[4] I
A[5] I
A[6] I
A[7] I
B[0] I
B[1] I
B[2] I
B[3] I
B[4] I
B[5] I
B[6] I
B[7] I
clk I
count[0] O
count[1] O
count[2] O
count[3] O
data_out[0] O
data_out[1] O
data_out[2] O
data_out[3] O
data_out[4] O
data_out[5] O
data_out[6] O
data_out[7] O
reset I
result[0] O
result[1] O
result[2] O
result[3] O
result[4] O
result[5] O
result[6] O
result[7] O
up_down I

*D_NET *551 0.000579178
*CONN
*P A[0] I
*I *2323:A I *D BUF_X1
*CAP
1 A[0] 0.000250204
2 *2323:A 0.000250204
3 *2323:A *1798:A 8.86665e-06
4 *2:16 *2323:A 0
5 *3:12 *2323:A 6.9903e-05
*RES
1 A[0] *2323:A 32.3536 
*END

*D_NET *1036 0.000599141
*CONN
*P A[1] I
*I *1940:A I *D BUF_X1
*CAP
1 A[1] 0.000295137
2 *1940:A 0.000295137
3 *1758:A *1940:A 8.86665e-06
4 *2420:A *1940:A 0
*RES
1 A[1] *1940:A 35.7107 
*END

*D_NET *900 0.000365209
*CONN
*P A[2] I
*I *1798:A I *D BUF_X1
*CAP
1 A[2] 0.00014691
2 *1798:A 0.00014691
3 *1757:A *1798:A 5.34732e-05
4 *2323:A *1798:A 8.86665e-06
5 *3:12 *1798:A 9.04962e-06
*RES
1 A[2] *1798:A 34.6679 
*END

*D_NET *881 0.000404553
*CONN
*P A[3] I
*I *1778:A I *D BUF_X1
*CAP
1 A[3] 0.000201675
2 *1778:A 0.000201675
3 *1760:A *1778:A 1.20208e-06
*RES
1 A[3] *1778:A 37.9536 
*END

*D_NET *872 0.000203833
*CONN
*P A[4] I
*I *1769:A I *D BUF_X1
*CAP
1 A[4] 0.000101916
2 *1769:A 0.000101916
*RES
1 A[4] *1769:A 27.8107 
*END

*D_NET *871 0.00167372
*CONN
*P A[5] I
*I *1768:A I *D BUF_X1
*CAP
1 A[5] 0.000791912
2 *1768:A 0.000791912
3 *855:15 *1768:A 8.98949e-05
*RES
1 A[5] *1768:A 46.5336 
*END

*D_NET *869 0.000197874
*CONN
*P A[6] I
*I *1766:A I *D BUF_X1
*CAP
1 A[6] 9.89371e-05
2 *1766:A 9.89371e-05
3 *1746:A *1766:A 0
*RES
1 A[6] *1766:A 28.025 
*END

*D_NET *867 0.000293065
*CONN
*P A[7] I
*I *1764:A I *D BUF_X1
*CAP
1 A[7] 0.000144168
2 *1764:A 0.000144168
3 *1744:A *1764:A 4.72953e-06
*RES
1 A[7] *1764:A 25.885 
*END

*D_NET *863 0.000473018
*CONN
*P B[0] I
*I *1760:A I *D BUF_X1
*CAP
1 B[0] 0.000235908
2 *1760:A 0.000235908
3 *1760:A *1778:A 1.20208e-06
4 *1720:A *1760:A 0
*RES
1 B[0] *1760:A 29.1393 
*END

*D_NET *861 0.000418499
*CONN
*P B[1] I
*I *1758:A I *D BUF_X1
*CAP
1 B[1] 0.000204215
2 *1758:A 0.000204215
3 *1758:A *1940:A 8.86665e-06
4 *1757:A *1758:A 1.20208e-06
*RES
1 B[1] *1758:A 39.2036 
*END

*D_NET *860 0.000314767
*CONN
*P B[2] I
*I *1757:A I *D BUF_X1
*CAP
1 B[2] 0.000130046
2 *1757:A 0.000130046
3 *1757:A *1758:A 1.20208e-06
4 *1757:A *1798:A 5.34732e-05
5 *3:12 *1757:A 0
*RES
1 B[2] *1757:A 32.5964 
*END

*D_NET *858 0.000332288
*CONN
*P B[3] I
*I *1755:A I *D BUF_X1
*CAP
1 B[3] 0.000165722
2 *1755:A 0.000165722
3 *4:14 *1755:A 8.43215e-07
4 *4:16 *1755:A 0
*RES
1 B[3] *1755:A 34.4536 
*END

*D_NET *857 0.000302136
*CONN
*P B[4] I
*I *1754:A I *D BUF_X1
*CAP
1 B[4] 0.000151068
2 *1754:A 0.000151068
*RES
1 B[4] *1754:A 30.7536 
*END

*D_NET *855 0.00138631
*CONN
*P B[5] I
*I *1752:A I *D BUF_X1
*CAP
1 B[5] 0.000648205
2 *1752:A 0
3 *855:15 0.000648205
4 *855:15 *1768:A 8.98949e-05
*RES
1 B[5] *855:15 46.6393 
2 *855:15 *1752:A 5 
*END

*D_NET *849 0.000133747
*CONN
*P B[6] I
*I *1746:A I *D BUF_X1
*CAP
1 B[6] 6.68737e-05
2 *1746:A 6.68737e-05
3 *1746:A *1766:A 0
*RES
1 B[6] *1746:A 24.275 
*END

*D_NET *847 0.000204701
*CONN
*P B[7] I
*I *1744:A I *D BUF_X1
*CAP
1 B[7] 9.9986e-05
2 *1744:A 9.9986e-05
3 *1744:A *1764:A 4.72953e-06
*RES
1 B[7] *1744:A 22.5007 
*END

*D_NET *17 0.000197547
*CONN
*I *1968:A2 I *D NAND2_X1
*I *1934:B2 I *D OAI21_X1
*I *1337:Q O *D DFF_X1
*CAP
1 *1968:A2 0
2 *1934:B2 3.48928e-05
3 *1337:Q 6.62225e-06
4 *17:6 4.1515e-05
5 *1934:B2 *1337:CK 0.000107955
6 *17:6 *1969:A2 6.56185e-06
*RES
1 *1337:Q *17:6 5.92857 
2 *17:6 *1934:B2 20.6786 
3 *17:6 *1968:A2 5 
*END

*D_NET *18 0.000517692
*CONN
*I *1897:B2 I *D OAI21_X1
*I *1965:A2 I *D NAND2_X1
*I *1338:Q O *D DFF_X1
*CAP
1 *1897:B2 2.4886e-05
2 *1965:A2 6.02423e-05
3 *1338:Q 0
4 *18:4 8.51283e-05
5 *1897:B2 *21:19 0.000173718
6 *1897:B2 *1309:66 0.000173718
7 *1965:A2 *811:34 0
*RES
1 *1338:Q *18:4 5 
2 *18:4 *1965:A2 10.6786 
3 *18:4 *1897:B2 24.0714 
*END

*D_NET *19 0.00022529
*CONN
*I *1884:B2 I *D OAI21_X1
*I *1963:A2 I *D NAND2_X1
*I *1339:Q O *D DFF_X1
*CAP
1 *1884:B2 5.17974e-05
2 *1963:A2 5.08384e-05
3 *1339:Q 0
4 *19:4 0.000102636
5 *1884:B2 *1964:A2 0
6 *1884:B2 *2370:A1 0
7 *1884:B2 *1042:19 0
8 *1963:A2 *1042:19 2.00179e-05
9 *1963:A2 *1303:893 0
*RES
1 *1339:Q *19:4 5 
2 *19:4 *1963:A2 10.6786 
3 *19:4 *1884:B2 20.6786 
*END

*D_NET *20 0.000391172
*CONN
*I *1844:B2 I *D OAI21_X1
*I *1960:A I *D INV_X1
*I *1340:Q O *D DFF_X1
*CAP
1 *1844:B2 0.00010416
2 *1960:A 6.24703e-05
3 *1340:Q 0
4 *20:4 0.00016663
5 *1844:B2 *1842:A 1.21774e-06
6 *1844:B2 *942:8 9.57492e-07
7 *1844:B2 *1040:30 0
8 *1844:B2 *1303:859 2.53238e-05
9 *1844:B2 *1303:874 2.25089e-06
10 *1960:A *1959:A1 1.19839e-05
11 *1960:A *1040:30 1.61774e-05
12 *1960:A *1303:859 0
*RES
1 *1340:Q *20:4 5 
2 *20:4 *1960:A 11.8571 
3 *20:4 *1844:B2 16.6786 
*END

*D_NET *21 0.00167789
*CONN
*I *1818:B2 I *D OAI21_X1
*I *1957:A2 I *D NAND2_X1
*I *1341:Q O *D DFF_X1
*CAP
1 *1818:B2 8.81644e-06
2 *1957:A2 7.22506e-05
3 *1341:Q 0
4 *21:19 0.000341807
5 *21:6 0.000405242
6 *1818:B2 *1818:B1 8.43215e-07
7 *1957:A2 *1341:D 0
8 *1957:A2 *1341:CK 1.65484e-05
9 *1957:A2 *1958:A 8.43215e-07
10 *21:19 *1341:CK 5.96884e-05
11 *21:19 *1818:A 0.000527346
12 *21:19 *1899:B1 2.03657e-05
13 *21:19 *1309:66 5.04171e-05
14 *1897:B2 *21:19 0.000173718
*RES
1 *1341:Q *21:6 10 
2 *21:6 *1957:A2 17.5357 
3 *21:6 *21:19 52.5 
4 *21:19 *1818:B2 10.75 
*END

*D_NET *22 0.000760931
*CONN
*I *1805:B2 I *D OAI21_X1
*I *1956:A I *D MUX2_X1
*I *1342:Q O *D DFF_X1
*CAP
1 *1805:B2 7.65449e-05
2 *1956:A 8.48023e-05
3 *1342:Q 0
4 *22:6 0.000161347
5 *1805:B2 *1806:A1 1.73125e-05
6 *1805:B2 *636:52 3.02351e-05
7 *1805:B2 *845:46 1.08666e-05
8 *1805:B2 *1062:17 4.72366e-05
9 *1805:B2 *1297:45 1.62231e-05
10 *1956:A *636:10 0.000145606
11 *1956:A *636:52 0.000141904
12 *1956:A *1297:20 0
13 *1956:A *1297:45 2.88527e-05
*RES
1 *1342:Q *22:6 10 
2 *22:6 *1956:A 25.1786 
3 *22:6 *1805:B2 20.4286 
*END

*D_NET *23 0.000309432
*CONN
*I *1759:B2 I *D OAI21_X1
*I *1954:A2 I *D NAND2_X1
*I *1343:Q O *D DFF_X1
*CAP
1 *1759:B2 3.2252e-05
2 *1954:A2 0.000112115
3 *1343:Q 0
4 *23:4 0.000144367
5 *1759:B2 *1042:6 0
6 *1759:B2 *1298:48 2.06972e-05
7 *1759:B2 *1303:893 0
8 *1954:A2 *1042:6 0
9 *1954:A2 *1303:893 0
*RES
1 *1343:Q *23:4 5 
2 *23:4 *1954:A2 26.2857 
3 *23:4 *1759:B2 19.0357 
*END

*D_NET *24 0.000514515
*CONN
*I *2273:B2 I *D OAI21_X1
*I *2370:A2 I *D NAND2_X1
*I *1344:Q O *D DFF_X1
*CAP
1 *2273:B2 6.01125e-05
2 *2370:A2 0.000146346
3 *1344:Q 0
4 *24:6 0.000206458
5 *2273:B2 *634:8 6.60887e-05
6 *2273:B2 *845:54 2.16072e-07
7 *2273:B2 *845:67 1.40737e-05
8 *2370:A2 *2370:A1 1.21774e-06
9 *2370:A2 *2371:A1 1.11168e-06
10 *2370:A2 *2371:A2 1.88906e-05
11 *2370:A2 *1303:889 0
*RES
1 *1344:Q *24:6 10 
2 *24:6 *2370:A2 26.0357 
3 *24:6 *2273:B2 17.8571 
*END

*D_NET *25 0.000513245
*CONN
*I *1915:B2 I *D OAI21_X1
*I *2157:A2 I *D NAND2_X1
*I *1345:Q O *D DFF_X1
*CAP
1 *1915:B2 0.000135026
2 *2157:A2 7.90072e-05
3 *1345:Q 3.94832e-05
4 *25:8 0.000253516
5 *2157:A2 *2158:A2 6.21255e-06
6 *25:8 *1311:32 0
*RES
1 *1345:Q *25:8 13.75 
2 *25:8 *2157:A2 18.3929 
3 *25:8 *1915:B2 24.5 
*END

*D_NET *26 0.000891151
*CONN
*I *1909:B2 I *D OAI21_X1
*I *2154:A2 I *D NAND2_X1
*I *1346:Q O *D DFF_X1
*CAP
1 *1909:B2 0.000106513
2 *2154:A2 6.04448e-05
3 *1346:Q 0
4 *26:6 0.000166958
5 *1909:B2 *1346:CK 4.4097e-06
6 *1909:B2 *1909:A 7.16188e-07
7 *1909:B2 *2118:B1 7.19036e-06
8 *1909:B2 *2129:B1 0
9 *1909:B2 *756:73 2.08098e-06
10 *1909:B2 *811:61 6.44316e-05
11 *1909:B2 *811:63 0.000102778
12 *1909:B2 *1311:62 0
13 *2154:A2 *1346:CK 6.15312e-06
14 *2154:A2 *2146:A1 0
15 *2154:A2 *2155:B2 3.02351e-05
16 *2154:A2 *414:77 8.91334e-05
17 *2154:A2 *811:61 0.000250107
*RES
1 *1346:Q *26:6 10 
2 *26:6 *2154:A2 23.1429 
3 *26:6 *1909:B2 24.5714 
*END

*D_NET *27 0.00066536
*CONN
*I *1865:B2 I *D OAI21_X1
*I *2152:A2 I *D NAND2_X1
*I *1347:Q O *D DFF_X1
*CAP
1 *1865:B2 3.82523e-05
2 *2152:A2 6.59088e-05
3 *1347:Q 0
4 *27:6 0.000104161
5 *1865:B2 *1347:CK 4.0456e-06
6 *1865:B2 *1294:97 0.000133155
7 *1865:B2 *1310:25 1.3453e-05
8 *1865:B2 *1310:38 4.17886e-06
9 *2152:A2 *1347:D 3.60121e-05
10 *2152:A2 *1347:CK 1.84597e-05
11 *2152:A2 *2151:A1 0.000131821
12 *2152:A2 *1294:97 0.000115912
*RES
1 *1347:Q *27:6 10 
2 *27:6 *2152:A2 23.1429 
3 *27:6 *1865:B2 17.0357 
*END

*D_NET *28 0.00138998
*CONN
*I *1860:B2 I *D OAI21_X1
*I *2149:A I *D INV_X1
*I *1348:Q O *D DFF_X1
*CAP
1 *1860:B2 0.000209897
2 *2149:A 1.38604e-05
3 *1348:Q 7.9224e-06
4 *28:8 0.000231679
5 *1860:B2 *1452:CK 0.000484559
6 *1860:B2 *1860:B1 4.21607e-06
7 *1860:B2 *2113:B1 4.18985e-05
8 *1860:B2 *2131:A 0
9 *1860:B2 *2150:B1 4.80378e-06
10 *1860:B2 *1295:124 0
11 *1860:B2 *1295:134 0.00033744
12 *1860:B2 *1295:147 1.30571e-05
13 *1860:B2 *1299:102 1.19839e-05
14 *1860:B2 *1303:268 5.10087e-06
15 *1860:B2 *1307:74 1.72426e-05
16 *2149:A *401:33 0
17 *28:8 *2150:B1 6.32202e-06
18 *28:8 *1295:124 0
*RES
1 *1348:Q *28:8 10.9286 
2 *28:8 *2149:A 11.25 
3 *28:8 *1860:B2 48.8214 
*END

*D_NET *29 0.000990127
*CONN
*I *1830:B2 I *D OAI21_X1
*I *2146:A2 I *D NAND2_X1
*I *1349:Q O *D DFF_X1
*CAP
1 *1830:B2 0.000248078
2 *2146:A2 0.000102428
3 *1349:Q 0
4 *29:6 0.000350507
5 *1830:B2 *1453:CK 5.19296e-05
6 *1830:B2 *1829:A2 0
7 *1830:B2 *1830:B1 6.05817e-05
8 *1830:B2 *2110:B1 1.28574e-05
9 *1830:B2 *391:68 0
10 *1830:B2 *1311:90 1.94394e-05
11 *2146:A2 *1346:CK 6.15556e-05
12 *2146:A2 *1349:D 1.81046e-05
13 *2146:A2 *2146:A1 1.39527e-05
14 *2146:A2 *2147:A 2.39679e-06
15 *2146:A2 *2147:B1 5.36702e-06
16 *2146:A2 *1311:64 4.14079e-05
17 *2146:A2 *1311:90 1.52083e-06
*RES
1 *1349:Q *29:6 10 
2 *29:6 *2146:A2 25.5714 
3 *29:6 *1830:B2 40.1072 
*END

*D_NET *30 0.000830125
*CONN
*I *1785:B2 I *D OAI21_X1
*I *2145:A I *D MUX2_X1
*I *1350:Q O *D DFF_X1
*CAP
1 *1785:B2 0.000152181
2 *2145:A 0.000132898
3 *1350:Q 7.14815e-06
4 *30:8 0.000292228
5 *1785:B2 *401:12 0.000152053
6 *1785:B2 *632:19 0
7 *1785:B2 *837:80 0
8 *1785:B2 *1303:249 7.18532e-06
9 *2145:A *1350:D 6.76378e-05
10 *2145:A *632:19 0
11 *2145:A *1297:64 9.52324e-06
12 *2145:A *1297:75 4.62991e-06
13 *2145:A *1297:92 2.72417e-06
14 *30:8 *401:12 9.57492e-07
15 *30:8 *845:168 9.57492e-07
*RES
1 *1350:Q *30:8 10.75 
2 *30:8 *2145:A 25.1786 
3 *30:8 *1785:B2 28.3929 
*END

*D_NET *31 0.000392811
*CONN
*I *1777:B2 I *D OAI21_X1
*I *2143:A2 I *D NAND2_X1
*I *1351:Q O *D DFF_X1
*CAP
1 *1777:B2 2.1681e-05
2 *2143:A2 0.00010343
3 *1351:Q 0
4 *31:6 0.000125111
5 *1777:B2 *1351:CK 2.55596e-05
6 *1777:B2 *866:8 4.04964e-06
7 *2143:A2 *1351:D 3.82567e-05
8 *2143:A2 *1351:CK 4.2108e-05
9 *2143:A2 *2144:A2 1.77822e-05
10 *2143:A2 *412:43 6.32202e-06
11 *2143:A2 *866:8 8.51124e-06
*RES
1 *1351:Q *31:6 10 
2 *31:6 *2143:A2 24.5 
3 *31:6 *1777:B2 13.6429 
*END

*D_NET *32 0.000490611
*CONN
*I *2254:B2 I *D OAI21_X1
*I *2340:A2 I *D NAND2_X1
*I *1352:Q O *D DFF_X1
*CAP
1 *2254:B2 5.62695e-05
2 *2340:A2 0.000141827
3 *1352:Q 0
4 *32:6 0.000198096
5 *2254:B2 *1294:130 0
6 *2340:A2 *1352:D 9.44188e-05
7 *2340:A2 *1294:78 0
8 *2340:A2 *1294:130 0
*RES
1 *1352:Q *32:6 10 
2 *32:6 *2340:A2 25.8571 
3 *32:6 *2254:B2 15.6786 
*END

*D_NET *33 0.000404517
*CONN
*I *1914:A2 I *D NOR2_X1
*I *2176:A2 I *D NAND2_X1
*I *1353:Q O *D DFF_X1
*CAP
1 *1914:A2 6.08869e-05
2 *2176:A2 3.17715e-05
3 *1353:Q 7.14669e-05
4 *33:10 0.000164125
5 *1914:A2 *1353:D 9.80007e-06
6 *1914:A2 *1864:A1 1.60848e-05
7 *1914:A2 *1918:A1 1.77822e-05
8 *1914:A2 *593:104 2.36876e-06
9 *2176:A2 *1353:D 8.58686e-06
10 *2176:A2 *1864:A1 1.88906e-05
11 *2176:A2 *2176:A1 2.75346e-06
12 *2176:A2 *884:79 0
*RES
1 *1353:Q *33:10 22.7143 
2 *33:10 *2176:A2 9.25 
3 *33:10 *1914:A2 22.4286 
*END

*D_NET *34 0.000629553
*CONN
*I *2173:A2 I *D NAND2_X1
*I *1910:A2 I *D NOR2_X1
*I *1354:Q O *D DFF_X1
*CAP
1 *2173:A2 6.62225e-06
2 *1910:A2 4.37479e-05
3 *1354:Q 0
4 *34:4 5.03701e-05
5 *1910:A2 *1831:A1 0.000230495
6 *1910:A2 *593:137 3.02351e-05
7 *1910:A2 *922:24 0.00026152
8 *2173:A2 *426:64 6.56185e-06
*RES
1 *1354:Q *34:4 5 
2 *34:4 *1910:A2 28.8214 
3 *34:4 *2173:A2 5.92857 
*END

*D_NET *35 0.000585989
*CONN
*I *2171:A2 I *D NAND2_X1
*I *1864:A2 I *D NOR2_X1
*I *1355:Q O *D DFF_X1
*CAP
1 *2171:A2 3.55173e-05
2 *1864:A2 0.000109442
3 *1355:Q 9.40207e-05
4 *35:8 0.00023898
5 *1864:A2 *1864:A1 5.52692e-06
6 *1864:A2 *609:45 0
7 *1864:A2 *1034:10 4.7393e-05
8 *2171:A2 *1355:D 3.56398e-06
9 *2171:A2 *2172:A2 1.83053e-06
10 *2171:A2 *426:41 1.32116e-05
11 *35:8 *1034:10 3.65019e-05
*RES
1 *1355:Q *35:8 20.4286 
2 *35:8 *1864:A2 23.0357 
3 *35:8 *2171:A2 13.75 
*END

*D_NET *36 0.000589313
*CONN
*I *2168:A I *D INV_X1
*I *1859:A2 I *D NOR2_X1
*I *1356:Q O *D DFF_X1
*CAP
1 *2168:A 7.16053e-05
2 *1859:A2 0.000120765
3 *1356:Q 3.81483e-05
4 *36:8 0.000230519
5 *1859:A2 *1356:CK 1.15782e-06
6 *1859:A2 *948:8 3.47708e-06
7 *1859:A2 *1295:147 9.24754e-05
8 *2168:A *1356:D 0
9 *2168:A *2169:B1 1.13397e-05
10 *2168:A *1295:147 0
11 *2168:A *1295:164 0
12 *36:8 *1356:CK 1.98256e-05
*RES
1 *1356:Q *36:8 15 
2 *36:8 *1859:A2 23.75 
3 *36:8 *2168:A 17.1786 
*END

*D_NET *37 0.000444902
*CONN
*I *2165:A2 I *D NAND2_X1
*I *1831:A2 I *D NOR2_X1
*I *1357:Q O *D DFF_X1
*CAP
1 *2165:A2 0
2 *1831:A2 0.000112354
3 *1357:Q 8.67468e-05
4 *37:12 0.000199101
5 *1831:A2 *1831:A1 1.21774e-06
6 *1831:A2 *2166:A 2.39679e-06
7 *1831:A2 *2166:B1 1.68643e-06
8 *1831:A2 *426:77 0
9 *1831:A2 *756:99 6.52138e-06
10 *37:12 *1357:D 7.90853e-06
11 *37:12 *1357:CK 2.21757e-05
12 *37:12 *2165:A1 0
13 *37:12 *2166:A 4.79358e-06
14 *37:12 *756:103 0
*RES
1 *1357:Q *37:12 24.9286 
2 *37:12 *1831:A2 16.4286 
3 *37:12 *2165:A2 5 
*END

*D_NET *38 0.000601901
*CONN
*I *2164:A I *D MUX2_X1
*I *1784:A2 I *D NOR2_X1
*I *1358:Q O *D DFF_X1
*CAP
1 *2164:A 0
2 *1784:A2 1.46602e-05
3 *1358:Q 7.9481e-05
4 *38:8 9.41413e-05
5 *1784:A2 *1788:A1 1.77822e-05
6 *1784:A2 *424:10 4.32298e-05
7 *1784:A2 *424:21 1.72426e-05
8 *1784:A2 *1306:135 7.18184e-06
9 *38:8 *424:21 0.00014161
10 *38:8 *424:84 0.000145725
11 *38:8 *1306:135 4.0847e-05
*RES
1 *1358:Q *38:8 25.1786 
2 *38:8 *1784:A2 12.9643 
3 *38:8 *2164:A 10 
*END

*D_NET *39 0.000510128
*CONN
*I *2162:A2 I *D NAND2_X1
*I *1779:A2 I *D NOR2_X1
*I *1359:Q O *D DFF_X1
*CAP
1 *2162:A2 6.25788e-05
2 *1779:A2 6.09499e-05
3 *1359:Q 3.04493e-05
4 *39:8 0.000153978
5 *1779:A2 *1779:A1 0
6 *1779:A2 *2160:A1 1.00588e-05
7 *1779:A2 *424:37 1.64551e-05
8 *1779:A2 *593:51 1.59685e-05
9 *1779:A2 *593:53 5.43017e-05
10 *2162:A2 *1779:A1 7.19036e-06
11 *2162:A2 *2160:A1 6.71612e-06
12 *2162:A2 *2163:A1 2.75346e-06
13 *2162:A2 *2163:A2 1.11435e-06
14 *2162:A2 *884:53 1.14748e-05
15 *39:8 *593:51 7.61387e-05
*RES
1 *1359:Q *39:8 14.3214 
2 *39:8 *1779:A2 17.3929 
3 *39:8 *2162:A2 16.75 
*END

*D_NET *40 0.000246322
*CONN
*I *2337:A2 I *D NAND2_X1
*I *2253:A2 I *D NOR2_X1
*I *1360:Q O *D DFF_X1
*CAP
1 *2337:A2 2.52964e-05
2 *2253:A2 3.46724e-05
3 *1360:Q 3.78798e-05
4 *40:8 9.78486e-05
5 *2253:A2 *2257:A1 1.77822e-05
6 *2253:A2 *1294:130 0
7 *2337:A2 *2338:A2 9.5257e-06
8 *2337:A2 *1294:130 0
9 *40:8 *2253:A1 2.16072e-07
10 *40:8 *2338:A2 2.31008e-05
11 *40:8 *389:33 0
12 *40:8 *424:33 0
*RES
1 *1360:Q *40:8 14.25 
2 *40:8 *2253:A2 13.6429 
3 *40:8 *2337:A2 12.9643 
*END

*D_NET *41 0.000366419
*CONN
*I *1922:B2 I *D OAI21_X1
*I *2195:A2 I *D NAND2_X1
*I *1361:Q O *D DFF_X1
*CAP
1 *1922:B2 3.37607e-05
2 *2195:A2 5.90173e-06
3 *1361:Q 3.94025e-05
4 *41:12 7.90649e-05
5 *1922:B2 *145:8 4.65264e-06
6 *1922:B2 *1021:8 0.000116162
7 *1922:B2 *1303:547 3.07768e-05
8 *2195:A2 *145:8 8.72084e-07
9 *2195:A2 *1021:8 1.77822e-05
10 *41:12 *1361:CK 4.29713e-06
11 *41:12 *438:37 2.39679e-06
12 *41:12 *438:46 2.66466e-05
13 *41:12 *1319:10 4.70304e-06
*RES
1 *1361:Q *41:12 14.9286 
2 *41:12 *2195:A2 10.9286 
3 *41:12 *1922:B2 16.3571 
*END

*D_NET *42 0.000154191
*CONN
*I *1891:B2 I *D OAI21_X1
*I *2192:A2 I *D NAND2_X1
*I *1362:Q O *D DFF_X1
*CAP
1 *1891:B2 4.49892e-06
2 *2192:A2 3.63252e-05
3 *1362:Q 2.33121e-05
4 *42:6 6.41362e-05
5 *1891:B2 *2192:A1 1.21774e-06
6 *1891:B2 *1303:575 1.21774e-06
7 *1891:B2 *1303:582 4.87096e-06
8 *2192:A2 *2192:A1 5.5307e-06
9 *2192:A2 *438:61 1.28122e-06
10 *2192:A2 *811:151 2.16072e-07
11 *42:6 *438:61 0
12 *42:6 *1303:582 1.15841e-05
*RES
1 *1362:Q *42:6 7.75 
2 *42:6 *2192:A2 9.21429 
3 *42:6 *1891:B2 6.25 
*END

*D_NET *43 0.000292267
*CONN
*I *1872:B2 I *D OAI21_X1
*I *2190:A2 I *D NAND2_X1
*I *1363:Q O *D DFF_X1
*CAP
1 *1872:B2 0
2 *2190:A2 3.05897e-05
3 *1363:Q 4.04976e-05
4 *43:8 7.10873e-05
5 *2190:A2 *1419:CK 1.29947e-05
6 *2190:A2 *1875:A1 2.77274e-05
7 *2190:A2 *2191:A2 1.77822e-05
8 *2190:A2 *1315:71 4.24402e-05
9 *43:8 *1872:B1 2.39679e-06
10 *43:8 *609:143 7.66204e-06
11 *43:8 *1303:508 3.90891e-05
*RES
1 *1363:Q *43:8 10.3571 
2 *43:8 *2190:A2 20 
3 *43:8 *1872:B2 5 
*END

*D_NET *44 0.000515621
*CONN
*I *1837:B2 I *D OAI21_X1
*I *2187:A I *D INV_X1
*I *1364:Q O *D DFF_X1
*CAP
1 *1837:B2 8.09363e-05
2 *2187:A 0.000108249
3 *1364:Q 0
4 *44:6 0.000189186
5 *1837:B2 *1837:A 1.83053e-06
6 *1837:B2 *448:14 0
7 *1837:B2 *954:10 2.36738e-05
8 *1837:B2 *1303:179 2.39679e-06
9 *2187:A *1364:D 1.43544e-05
10 *2187:A *2186:A1 5.62244e-05
11 *2187:A *2188:B1 1.77822e-05
12 *2187:A *448:14 0
13 *2187:A *1295:182 2.09871e-05
*RES
1 *1364:Q *44:6 10 
2 *44:6 *2187:A 23.1429 
3 *44:6 *1837:B2 18.7143 
*END

*D_NET *45 0.000695735
*CONN
*I *1812:B2 I *D OAI21_X1
*I *2184:A2 I *D NAND2_X1
*I *1365:Q O *D DFF_X1
*CAP
1 *1812:B2 0.000156955
2 *2184:A2 2.05968e-05
3 *1365:Q 3.76395e-05
4 *45:8 0.000215191
5 *1812:B2 *438:61 0
6 *1812:B2 *756:190 5.56848e-05
7 *1812:B2 *1303:582 2.75346e-06
8 *1812:B2 *1303:588 0.000104821
9 *2184:A2 *2185:B2 2.94435e-05
10 *2184:A2 *756:190 6.76378e-05
11 *45:8 *1365:CK 4.79658e-06
12 *45:8 *2184:A1 2.16072e-07
*RES
1 *1365:Q *45:8 13.75 
2 *45:8 *2184:A2 13.6429 
3 *45:8 *1812:B2 28.7143 
*END

*D_NET *46 0.000355409
*CONN
*I *1792:B2 I *D OAI21_X1
*I *2183:A I *D MUX2_X1
*I *1366:Q O *D DFF_X1
*CAP
1 *1792:B2 2.83791e-05
2 *2183:A 4.86343e-05
3 *1366:Q 0
4 *46:6 7.70134e-05
5 *1792:B2 *1366:D 4.43868e-06
6 *1792:B2 *1366:CK 6.76378e-05
7 *1792:B2 *1088:12 1.26998e-05
8 *1792:B2 *1303:93 1.83486e-05
9 *2183:A *1366:D 2.2331e-05
10 *2183:A *1366:CK 5.7184e-05
11 *2183:A *2183:B 2.75346e-06
12 *2183:A *436:8 2.75346e-06
13 *2183:A *436:12 1.32348e-05
14 *2183:A *1303:93 0
*RES
1 *1366:Q *46:6 10 
2 *46:6 *2183:A 16.7143 
3 *46:6 *1792:B2 14.8929 
*END

*D_NET *47 0.000217343
*CONN
*I *1745:B2 I *D OAI21_X1
*I *2181:A2 I *D NAND2_X1
*I *1367:Q O *D DFF_X1
*CAP
1 *1745:B2 0
2 *2181:A2 3.00506e-05
3 *1367:Q 3.20499e-05
4 *47:6 6.21005e-05
5 *2181:A2 *2182:A2 1.77822e-05
6 *2181:A2 *1298:185 2.45513e-05
7 *47:6 *1745:B1 8.43215e-07
8 *47:6 *1748:B1 2.97287e-06
9 *47:6 *438:28 2.39679e-06
10 *47:6 *438:37 4.4596e-05
11 *47:6 *1303:527 0
12 *47:6 *1303:533 0
*RES
1 *1367:Q *47:6 9.25 
2 *47:6 *2181:A2 19.3214 
3 *47:6 *1745:B2 5 
*END

*D_NET *48 0.000252928
*CONN
*I *2261:B2 I *D OAI21_X1
*I *2334:A2 I *D NAND2_X1
*I *1368:Q O *D DFF_X1
*CAP
1 *2261:B2 2.55941e-05
2 *2334:A2 4.22869e-05
3 *1368:Q 0
4 *48:4 6.78811e-05
5 *2261:B2 *493:8 5.59081e-05
6 *2261:B2 *1280:221 1.32348e-05
7 *2261:B2 *1315:14 2.86475e-06
8 *2334:A2 *2334:A1 8.43215e-07
9 *2334:A2 *1280:221 5.94205e-06
10 *2334:A2 *1315:14 3.83732e-05
*RES
1 *1368:Q *48:4 5 
2 *48:4 *2334:A2 10.3571 
3 *48:4 *2261:B2 19.2143 
*END

*D_NET *49 0.000687554
*CONN
*I *2213:A2 I *D NAND2_X1
*I *1923:A2 I *D NOR2_X1
*I *1369:Q O *D DFF_X1
*CAP
1 *2213:A2 1.98736e-05
2 *1923:A2 0.000133183
3 *1369:Q 0.000144616
4 *49:10 0.000297673
5 *1923:A2 *1921:A 2.88181e-05
6 *1923:A2 *1924:B2 0
7 *1923:A2 *837:279 5.03556e-06
8 *1923:A2 *837:286 1.21774e-06
9 *2213:A2 *1369:D 0
10 *2213:A2 *450:63 9.24306e-06
11 *49:10 *450:63 2.24081e-05
12 *49:10 *473:32 2.32473e-05
13 *49:10 *473:36 2.23871e-06
*RES
1 *1369:Q *49:10 26.0714 
2 *49:10 *1923:A2 24.5357 
3 *49:10 *2213:A2 12.25 
*END

*D_NET *50 0.000481531
*CONN
*I *2210:A2 I *D NAND2_X1
*I *1892:A2 I *D NOR2_X1
*I *1370:Q O *D DFF_X1
*CAP
1 *2210:A2 4.80341e-05
2 *1892:A2 7.43661e-05
3 *1370:Q 2.36631e-05
4 *50:8 0.000146063
5 *1892:A2 *1370:D 9.38792e-05
6 *1892:A2 *1813:A2 2.00103e-05
7 *1892:A2 *1893:B2 6.99525e-06
8 *2210:A2 *1370:D 4.79658e-06
9 *2210:A2 *2211:A 0
10 *2210:A2 *2211:B1 0
11 *2210:A2 *450:63 1.21774e-06
12 *2210:A2 *1319:109 8.37609e-06
13 *2210:A2 *1319:116 2.16072e-07
14 *50:8 *1370:D 5.1189e-05
15 *50:8 *1813:A2 2.72417e-06
*RES
1 *1370:Q *50:8 13.6429 
2 *50:8 *1892:A2 20.4286 
3 *50:8 *2210:A2 14.75 
*END

*D_NET *51 0.000774132
*CONN
*I *2208:A2 I *D NAND2_X1
*I *1873:A2 I *D NOR2_X1
*I *1371:Q O *D DFF_X1
*CAP
1 *2208:A2 8.71307e-06
2 *1873:A2 9.25954e-05
3 *1371:Q 0
4 *51:4 0.000101308
5 *1873:A2 *1371:D 0.000157813
6 *1873:A2 *450:14 9.44209e-05
7 *1873:A2 *471:83 0.000224117
8 *1873:A2 *1315:97 9.51636e-05
9 *2208:A2 *448:74 0
*RES
1 *1371:Q *51:4 5 
2 *51:4 *1873:A2 36.2857 
3 *51:4 *2208:A2 5.92857 
*END

*D_NET *52 1.75953e-05
*CONN
*I *1835:A I *D INV_X1
*I *1372:Q O *D DFF_X1
*CAP
1 *1835:A 8.27474e-06
2 *1372:Q 8.27474e-06
3 *1835:A *2206:B1 0
4 *1835:A *935:8 1.04584e-06
*RES
1 *1372:Q *1835:A 10.9286 
*END

*D_NET *53 0.00077813
*CONN
*I *2203:A2 I *D NAND2_X1
*I *1813:A2 I *D NOR2_X1
*I *1373:Q O *D DFF_X1
*CAP
1 *2203:A2 2.74057e-05
2 *1813:A2 0.000194597
3 *1373:Q 5.80506e-05
4 *53:10 0.000280053
5 *1813:A2 *1370:D 3.17947e-05
6 *1813:A2 *1893:B2 2.0679e-05
7 *1813:A2 *2203:A1 1.02657e-05
8 *1813:A2 *2211:A 1.16067e-05
9 *1813:A2 *450:74 2.26306e-06
10 *1813:A2 *811:170 8.09887e-05
11 *1813:A2 *811:185 1.9254e-05
12 *1813:A2 *837:316 8.50486e-06
13 *2203:A2 *2204:A 8.43215e-07
14 *2203:A2 *2204:B1 4.78395e-06
15 *53:10 *2203:A1 4.30618e-06
16 *53:10 *2204:B1 0
17 *1892:A2 *1813:A2 2.00103e-05
18 *50:8 *1813:A2 2.72417e-06
*RES
1 *1373:Q *53:10 16.25 
2 *53:10 *1813:A2 37.6072 
3 *53:10 *2203:A2 12.75 
*END

*D_NET *54 0.000291127
*CONN
*I *1793:A2 I *D NOR2_X1
*I *2202:A I *D MUX2_X1
*I *1374:Q O *D DFF_X1
*CAP
1 *1793:A2 2.31717e-05
2 *2202:A 0
3 *1374:Q 6.42181e-06
4 *54:8 2.95935e-05
5 *1793:A2 *1374:D 6.73899e-05
6 *1793:A2 *448:14 0.000100914
7 *1793:A2 *837:388 1.33892e-05
8 *54:8 *1374:D 2.99872e-05
9 *54:8 *1794:B1 3.01743e-06
10 *54:8 *448:14 1.72426e-05
*RES
1 *1374:Q *54:8 11.6071 
2 *54:8 *2202:A 10 
3 *54:8 *1793:A2 15.6786 
*END

*D_NET *55 0.000705884
*CONN
*I *2200:A2 I *D NAND2_X1
*I *1747:A2 I *D NOR2_X1
*I *1375:Q O *D DFF_X1
*CAP
1 *2200:A2 6.62225e-06
2 *1747:A2 0.00017976
3 *1375:Q 0
4 *55:4 0.000186382
5 *1747:A2 *1331:CK 4.11266e-05
6 *1747:A2 *1375:D 0.000157813
7 *1747:A2 *1748:B2 7.65033e-06
8 *1747:A2 *2212:A1 0
9 *1747:A2 *2212:A2 0
10 *1747:A2 *450:48 3.44913e-05
11 *1747:A2 *1298:196 0
12 *1747:A2 *1318:75 8.54767e-05
13 *2200:A2 *448:74 6.56185e-06
*RES
1 *1375:Q *55:4 5 
2 *55:4 *1747:A2 41.7143 
3 *55:4 *2200:A2 5.92857 
*END

*D_NET *56 0.000794772
*CONN
*I *2331:A2 I *D NAND2_X1
*I *2262:A2 I *D NOR2_X1
*I *1376:Q O *D DFF_X1
*CAP
1 *2331:A2 0
2 *2262:A2 0.00016855
3 *1376:Q 4.93989e-05
4 *56:8 0.000217949
5 *2262:A2 *1376:D 0
6 *2262:A2 *1506:A 1.2203e-05
7 *2262:A2 *2332:A1 6.32202e-06
8 *2262:A2 *64:10 0
9 *2262:A2 *837:209 3.02351e-05
10 *2262:A2 *837:224 0.000129699
11 *2262:A2 *1299:181 9.93735e-05
12 *2262:A2 *1299:192 6.76378e-05
13 *56:8 *1376:D 0
14 *56:8 *2330:A1 2.39679e-06
15 *56:8 *2331:A1 8.43215e-07
16 *56:8 *2332:A2 2.50642e-06
17 *56:8 *448:40 7.65847e-06
*RES
1 *1376:Q *56:8 10.3571 
2 *56:8 *2262:A2 41.0357 
3 *56:8 *2331:A2 5 
*END

*D_NET *57 0.000273714
*CONN
*I *1921:B2 I *D OAI21_X1
*I *2232:A2 I *D NAND2_X1
*I *1377:Q O *D DFF_X1
*CAP
1 *1921:B2 2.83768e-05
2 *2232:A2 8.63282e-05
3 *1377:Q 0
4 *57:6 0.000114705
5 *1921:B2 *1921:A 2.11815e-06
6 *1921:B2 *1921:B1 1.21774e-06
7 *1921:B2 *1924:B2 4.77415e-06
8 *1921:B2 *461:25 0
9 *2232:A2 *1377:CK 1.52083e-06
10 *2232:A2 *1924:B2 2.32458e-06
11 *2232:A2 *2233:A2 0
12 *2232:A2 *461:12 1.21774e-06
13 *2232:A2 *461:25 1.46756e-05
14 *2232:A2 *595:213 1.64551e-05
*RES
1 *1377:Q *57:6 10 
2 *57:6 *2232:A2 19.4286 
3 *57:6 *1921:B2 12.8571 
*END

*D_NET *58 0.000591109
*CONN
*I *1890:B2 I *D OAI21_X1
*I *2229:A2 I *D NAND2_X1
*I *1378:Q O *D DFF_X1
*CAP
1 *1890:B2 0.000170598
2 *2229:A2 0
3 *1378:Q 7.14235e-05
4 *58:10 0.000242021
5 *1890:B2 *1890:B1 8.43215e-07
6 *1890:B2 *2230:A 1.26998e-05
7 *1890:B2 *2230:B1 8.32497e-05
8 *1890:B2 *811:170 0
9 *58:10 *461:25 1.02733e-05
10 *58:10 *595:213 0
*RES
1 *1378:Q *58:10 12.6429 
2 *58:10 *2229:A2 5 
3 *58:10 *1890:B2 25.25 
*END

*D_NET *59 0.000761436
*CONN
*I *1871:B2 I *D OAI21_X1
*I *2227:A2 I *D NAND2_X1
*I *1379:Q O *D DFF_X1
*CAP
1 *1871:B2 0
2 *2227:A2 0.000137259
3 *1379:Q 0.00012062
4 *59:12 0.000257878
5 *2227:A2 *1379:D 4.24735e-05
6 *2227:A2 *1379:CK 7.72537e-06
7 *2227:A2 *1871:A 1.13571e-05
8 *2227:A2 *1871:B1 3.19164e-06
9 *2227:A2 *2228:A2 2.70833e-06
10 *2227:A2 *2328:A1 1.21774e-06
11 *2227:A2 *461:92 4.12459e-06
12 *2227:A2 *1280:229 5.01029e-05
13 *2227:A2 *1294:194 1.02224e-05
14 *59:12 *461:84 9.24754e-05
15 *59:12 *1315:46 2.00802e-05
*RES
1 *1379:Q *59:12 28.75 
2 *59:12 *2227:A2 22.5357 
3 *59:12 *1871:B2 5 
*END

*D_NET *60 0.000172001
*CONN
*I *1839:B2 I *D OAI21_X1
*I *2224:A I *D INV_X1
*I *1380:Q O *D DFF_X1
*CAP
1 *1839:B2 2.19304e-05
2 *2224:A 4.09145e-05
3 *1380:Q 0
4 *60:4 6.28449e-05
5 *1839:B2 *1839:B1 6.0887e-06
6 *1839:B2 *1111:57 2.55331e-06
7 *2224:A *1839:B1 0
8 *2224:A *1111:57 3.76691e-05
*RES
1 *1380:Q *60:4 5 
2 *60:4 *2224:A 9.67857 
3 *60:4 *1839:B2 7.85714 
*END

*D_NET *61 0.000453422
*CONN
*I *1811:B2 I *D OAI21_X1
*I *2221:A2 I *D NAND2_X1
*I *1381:Q O *D DFF_X1
*CAP
1 *1811:B2 0.000124758
2 *2221:A2 6.84423e-05
3 *1381:Q 8.71307e-06
4 *61:6 0.000201913
5 *1811:B2 *2222:B1 6.707e-06
6 *1811:B2 *595:213 2.52322e-05
7 *1811:B2 *609:171 0
8 *2221:A2 *2222:A 2.39679e-06
9 *2221:A2 *2222:B1 1.52596e-05
10 *2221:A2 *595:213 0
*RES
1 *1381:Q *61:6 5.92857 
2 *61:6 *2221:A2 12.6786 
3 *61:6 *1811:B2 18.75 
*END

*D_NET *62 0.000193733
*CONN
*I *2220:A I *D MUX2_X1
*I *1791:B2 I *D OAI21_X1
*I *1382:Q O *D DFF_X1
*CAP
1 *2220:A 2.66821e-05
2 *1791:B2 5.72415e-05
3 *1382:Q 0
4 *62:4 8.39236e-05
5 *1791:B2 *1382:CK 0
6 *1791:B2 *1791:A 1.61446e-06
7 *1791:B2 *1791:B1 8.43215e-07
8 *1791:B2 *1794:A1 1.21774e-06
9 *1791:B2 *1794:B1 1.60038e-06
10 *1791:B2 *1795:A1 1.86809e-06
11 *1791:B2 *1111:14 0
12 *2220:A *1382:CK 0
13 *2220:A *1111:14 1.87418e-05
*RES
1 *1382:Q *62:4 5 
2 *62:4 *1791:B2 10.8571 
3 *62:4 *2220:A 8.35714 
*END

*D_NET *63 0.000275503
*CONN
*I *1741:B2 I *D OAI21_X1
*I *2218:A2 I *D NAND2_X1
*I *1383:Q O *D DFF_X1
*CAP
1 *1741:B2 0
2 *2218:A2 1.90693e-05
3 *1383:Q 6.4841e-05
4 *63:8 8.39103e-05
5 *2218:A2 *2219:A2 1.77822e-05
6 *2218:A2 *461:82 4.50392e-06
7 *2218:A2 *1298:196 5.3139e-05
8 *63:8 *1741:B1 1.19839e-05
9 *63:8 *1921:A 3.26005e-06
10 *63:8 *461:67 1.46166e-05
11 *63:8 *461:82 2.39679e-06
12 *63:8 *1280:235 0
*RES
1 *1383:Q *63:8 12.2143 
2 *63:8 *2218:A2 17.9643 
3 *63:8 *1741:B2 5 
*END

*D_NET *64 0.000482374
*CONN
*I *2260:B2 I *D OAI21_X1
*I *2328:A2 I *D NAND2_X1
*I *1384:Q O *D DFF_X1
*CAP
1 *2260:B2 4.75953e-05
2 *2328:A2 5.30684e-05
3 *1384:Q 0.000136508
4 *64:10 0.000237171
5 *2260:B2 *2260:A 6.85774e-07
6 *2260:B2 *2328:A1 0
7 *2328:A2 *2260:A 0
8 *64:10 *2260:A 0
9 *64:10 *471:49 7.34533e-06
10 *64:10 *837:209 0
11 *2262:A2 *64:10 0
*RES
1 *1384:Q *64:10 24.6786 
2 *64:10 *2328:A2 14.3214 
3 *64:10 *2260:B2 14.5 
*END

*D_NET *65 0.000538008
*CONN
*I *2251:A2 I *D NAND2_X1
*I *1920:A2 I *D NOR2_X1
*I *1385:Q O *D DFF_X1
*CAP
1 *2251:A2 0
2 *1920:A2 0.000107705
3 *1385:Q 0.000141999
4 *65:8 0.000249704
5 *1920:A2 *1385:CK 0
6 *1920:A2 *1920:A1 2.94435e-05
7 *1920:A2 *1924:A1 6.21255e-06
8 *1920:A2 *145:8 2.94407e-06
9 *1920:A2 *1319:82 0
10 *65:8 *1385:CK 0
11 *65:8 *2252:A2 0
*RES
1 *1385:Q *65:8 25.1786 
2 *65:8 *1920:A2 21.7857 
3 *65:8 *2251:A2 10 
*END

*D_NET *66 0.000624701
*CONN
*I *2248:A2 I *D NAND2_X1
*I *1889:A2 I *D NOR2_X1
*I *1386:Q O *D DFF_X1
*CAP
1 *2248:A2 0
2 *1889:A2 0.000127004
3 *1386:Q 0.000117916
4 *66:12 0.000244921
5 *1889:A2 *1373:CK 3.36651e-05
6 *1889:A2 *1810:A1 3.02351e-05
7 *1889:A2 *473:46 0
8 *66:12 *1386:CK 1.01993e-05
9 *66:12 *2249:A 0
10 *66:12 *473:36 2.39679e-06
11 *66:12 *473:46 5.8363e-05
*RES
1 *1386:Q *66:12 28.3214 
2 *66:12 *1889:A2 30.8571 
3 *66:12 *2248:A2 5 
*END

*D_NET *67 0.000293744
*CONN
*I *2246:A2 I *D NAND2_X1
*I *1870:A2 I *D NOR2_X1
*I *1387:Q O *D DFF_X1
*CAP
1 *2246:A2 2.66099e-05
2 *1870:A2 5.34972e-05
3 *1387:Q 0
4 *67:4 8.01072e-05
5 *1870:A2 *1870:A1 0
6 *1870:A2 *1874:A2 5.32056e-05
7 *1870:A2 *1874:B2 6.76643e-05
8 *1870:A2 *461:84 9.30026e-06
9 *2246:A2 *2246:A1 8.43215e-07
10 *2246:A2 *2247:A1 0
11 *2246:A2 *461:84 2.51631e-06
*RES
1 *1387:Q *67:4 5 
2 *67:4 *1870:A2 22.8929 
3 *67:4 *2246:A2 7.67857 
*END

*D_NET *68 0.000487886
*CONN
*I *2243:A I *D INV_X1
*I *1838:A2 I *D NOR2_X1
*I *1388:Q O *D DFF_X1
*CAP
1 *2243:A 0
2 *1838:A2 3.73682e-05
3 *1388:Q 7.36059e-05
4 *68:12 0.000110974
5 *1838:A2 *1840:B1 6.99525e-06
6 *1838:A2 *2244:A 2.06603e-05
7 *1838:A2 *471:19 4.16122e-05
8 *1838:A2 *471:30 3.66089e-05
9 *1838:A2 *471:41 4.95373e-05
10 *1838:A2 *1100:45 1.1427e-05
11 *68:12 *1388:D 8.80561e-06
12 *68:12 *2244:A 1.26998e-05
13 *68:12 *459:42 5.20211e-05
14 *68:12 *471:41 0
15 *68:12 *1100:45 1.16091e-05
16 *68:12 *1312:46 1.39607e-05
*RES
1 *1388:Q *68:12 25.7857 
2 *68:12 *1838:A2 22.0357 
3 *68:12 *2243:A 5 
*END

*D_NET *69 0.00021982
*CONN
*I *2240:A2 I *D NAND2_X1
*I *1810:A2 I *D NOR2_X1
*I *1389:Q O *D DFF_X1
*CAP
1 *2240:A2 2.18645e-05
2 *1810:A2 8.44741e-05
3 *1389:Q 0
4 *69:4 0.000106339
5 *1810:A2 *1810:A1 2.39679e-06
6 *1810:A2 *2241:A 0
7 *2240:A2 *2241:A 1.27666e-06
8 *2240:A2 *2241:B2 6.38328e-07
9 *2240:A2 *473:46 2.83077e-06
*RES
1 *1389:Q *69:4 5 
2 *69:4 *1810:A2 13.8214 
3 *69:4 *2240:A2 7.67857 
*END

*D_NET *70 0.000606847
*CONN
*I *2239:A I *D MUX2_X1
*I *1790:A2 I *D NOR2_X1
*I *1390:Q O *D DFF_X1
*CAP
1 *2239:A 4.05974e-05
2 *1790:A2 3.97155e-05
3 *1390:Q 6.96515e-05
4 *70:10 0.000149964
5 *1790:A2 *1790:A1 1.21774e-06
6 *1790:A2 *1794:A1 0
7 *1790:A2 *1795:A1 4.99246e-05
8 *1790:A2 *1297:116 9.06043e-06
9 *2239:A *1795:A1 2.28594e-05
10 *2239:A *1297:116 2.3518e-05
11 *70:10 *1100:45 0
12 *70:10 *1111:8 7.99304e-05
13 *70:10 *1111:51 0.000120408
*RES
1 *1390:Q *70:10 25.4286 
2 *70:10 *1790:A2 10.6786 
3 *70:10 *2239:A 10.75 
*END

*D_NET *71 0.000409311
*CONN
*I *2237:A2 I *D NAND2_X1
*I *1736:A2 I *D NOR2_X1
*I *1391:Q O *D DFF_X1
*CAP
1 *2237:A2 4.59178e-05
2 *1736:A2 0.000104033
3 *1391:Q 0
4 *71:4 0.000149951
5 *1736:A2 *1391:D 6.25556e-05
6 *1736:A2 *1318:75 0
7 *2237:A2 *2238:A2 4.44177e-05
8 *2237:A2 *473:25 1.21774e-06
9 *2237:A2 *473:32 1.21774e-06
*RES
1 *1391:Q *71:4 5 
2 *71:4 *1736:A2 28.1429 
3 *71:4 *2237:A2 10.6786 
*END

*D_NET *72 0.00040345
*CONN
*I *2325:A2 I *D NAND2_X1
*I *2259:A2 I *D NOR2_X1
*I *1392:Q O *D DFF_X1
*CAP
1 *2325:A2 0
2 *2259:A2 6.25888e-05
3 *1392:Q 4.17174e-05
4 *72:8 0.000104306
5 *2259:A2 *2263:A1 3.01743e-06
6 *2259:A2 *2324:A2 0.000108171
7 *2259:A2 *471:57 6.77531e-05
8 *72:8 *2325:A1 1.5896e-05
9 *72:8 *2326:A2 0
10 *72:8 *837:235 0
*RES
1 *1392:Q *72:8 9.67857 
2 *72:8 *2259:A2 24.75 
3 *72:8 *2325:A2 5 
*END

*D_NET *73 0.000188195
*CONN
*I *1935:A2 I *D NOR2_X1
*I *1984:A2 I *D NAND2_X1
*I *1393:Q O *D DFF_X1
*CAP
1 *1935:A2 2.26628e-05
2 *1984:A2 5.44686e-06
3 *1393:Q 3.99287e-06
4 *73:8 3.21025e-05
5 *1935:A2 *1933:B1 6.41837e-05
6 *1935:A2 *1935:A1 1.21774e-06
7 *1935:A2 *1936:B1 2.51177e-05
8 *1935:A2 *634:161 3.09411e-06
9 *1935:A2 *634:170 1.21774e-06
10 *1935:A2 *1064:41 0
11 *1984:A2 *634:161 1.40196e-06
12 *1984:A2 *1303:925 3.65322e-06
13 *73:8 *1933:B1 1.77822e-05
14 *73:8 *1936:B1 6.32202e-06
*RES
1 *1393:Q *73:8 10.9286 
2 *73:8 *1984:A2 10.75 
3 *73:8 *1935:A2 14.3929 
*END

*D_NET *74 0.000607759
*CONN
*I *1898:A2 I *D NOR2_X1
*I *1981:A2 I *D NAND2_X1
*I *1394:Q O *D DFF_X1
*CAP
1 *1898:A2 0.000125195
2 *1981:A2 7.11088e-05
3 *1394:Q 0
4 *74:6 0.000196304
5 *1898:A2 *1898:A1 7.16188e-07
6 *1898:A2 *634:170 0
7 *1898:A2 *634:176 0
8 *1898:A2 *1309:107 0.000108203
9 *1981:A2 *1394:D 8.62472e-06
10 *1981:A2 *1982:A 2.39679e-06
11 *1981:A2 *1982:B2 0
12 *1981:A2 *634:176 0
13 *1981:A2 *1309:92 0
14 *1981:A2 *1309:107 9.52105e-05
*RES
1 *1394:Q *74:6 10 
2 *74:6 *1981:A2 19.25 
3 *74:6 *1898:A2 24.4286 
*END

*D_NET *75 0.00043662
*CONN
*I *1885:A2 I *D NOR2_X1
*I *1979:A2 I *D NAND2_X1
*I *1395:Q O *D DFF_X1
*CAP
1 *1885:A2 0.000124612
2 *1979:A2 1.72659e-05
3 *1395:Q 3.4439e-05
4 *75:8 0.000176317
5 *1885:A2 *837:457 3.69961e-05
6 *1885:A2 *983:10 0
7 *1979:A2 *1979:A1 3.02351e-05
8 *1979:A2 *983:10 0
9 *75:8 *1979:A1 7.19036e-06
10 *75:8 *1980:A2 1.68643e-06
11 *75:8 *634:146 0
12 *75:8 *1064:27 7.87811e-06
*RES
1 *1395:Q *75:8 13.75 
2 *75:8 *1979:A2 12.2857 
3 *75:8 *1885:A2 24.5 
*END

*D_NET *76 0.000113206
*CONN
*I *1842:A I *D INV_X1
*I *1396:Q O *D DFF_X1
*CAP
1 *1842:A 4.39191e-05
2 *1396:Q 4.39191e-05
3 *1842:A *1843:A 1.73125e-05
4 *1842:A *942:8 0
5 *1842:A *1040:30 2.99349e-06
6 *1842:A *1303:885 3.84365e-06
7 *1844:B2 *1842:A 1.21774e-06
*RES
1 *1396:Q *1842:A 14.6786 
*END

*D_NET *77 0.000651105
*CONN
*I *1819:A2 I *D NOR2_X1
*I *1974:A2 I *D NAND2_X1
*I *1397:Q O *D DFF_X1
*CAP
1 *1819:A2 0.000184268
2 *1974:A2 8.56155e-05
3 *1397:Q 0
4 *77:6 0.000269884
5 *1819:A2 *1410:D 0
6 *1819:A2 *1410:CK 6.3924e-06
7 *1819:A2 *1413:CK 1.11357e-05
8 *1819:A2 *1819:A1 6.48216e-07
9 *1819:A2 *2021:A1 0
10 *1819:A2 *90:12 0
11 *1819:A2 *756:54 0
12 *1819:A2 *1077:76 0
13 *1819:A2 *1309:111 3.66801e-05
14 *1974:A2 *1397:D 7.90853e-06
15 *1974:A2 *1974:A1 0
16 *1974:A2 *1975:A 7.19036e-06
17 *1974:A2 *756:54 0
18 *1974:A2 *1309:107 1.72426e-05
19 *1974:A2 *1309:111 2.41394e-05
*RES
1 *1397:Q *77:6 10 
2 *77:6 *1974:A2 20.6071 
3 *77:6 *1819:A2 30.7857 
*END

*D_NET *78 0.000443645
*CONN
*I *1806:A2 I *D NOR2_X1
*I *1973:A I *D MUX2_X1
*I *1398:Q O *D DFF_X1
*CAP
1 *1806:A2 7.95024e-06
2 *1973:A 0.000102114
3 *1398:Q 5.17015e-06
4 *78:8 0.000115235
5 *1806:A2 *636:52 2.49497e-05
6 *1806:A2 *1304:28 4.80378e-06
7 *1806:A2 *1304:30 5.64879e-06
8 *1973:A *1398:D 6.84295e-05
9 *1973:A *632:19 0
10 *1973:A *636:52 1.66988e-05
11 *1973:A *1297:20 1.65458e-05
12 *1973:A *1297:45 6.2424e-06
13 *1973:A *1304:30 3.893e-05
14 *1973:A *1304:36 1.65458e-05
15 *78:8 *636:52 7.19036e-06
16 *78:8 *1304:88 7.19036e-06
*RES
1 *1398:Q *78:8 10.75 
2 *78:8 *1973:A 25.1786 
3 *78:8 *1806:A2 11.6071 
*END

*D_NET *79 0.000444488
*CONN
*I *1971:A2 I *D NAND2_X1
*I *1761:A2 I *D NOR2_X1
*I *1399:Q O *D DFF_X1
*CAP
1 *1971:A2 0
2 *1761:A2 2.80356e-05
3 *1399:Q 4.18393e-05
4 *79:8 6.98749e-05
5 *1761:A2 *1970:A2 0.000133403
6 *1761:A2 *1971:A1 0.000119619
7 *1761:A2 *1972:A2 6.32461e-06
8 *1761:A2 *633:115 1.72426e-05
9 *79:8 *1971:A1 3.09411e-06
10 *79:8 *1042:6 1.81442e-05
11 *79:8 *1303:908 6.91187e-06
*RES
1 *1399:Q *79:8 10.1786 
2 *79:8 *1761:A2 22.7143 
3 *79:8 *1971:A2 5 
*END

*D_NET *80 0.000536595
*CONN
*I *2274:A2 I *D NOR2_X1
*I *2367:A2 I *D NAND2_X1
*I *1400:Q O *D DFF_X1
*CAP
1 *2274:A2 0.000113133
2 *2367:A2 6.87566e-05
3 *1400:Q 0
4 *80:4 0.00018189
5 *2274:A2 *2367:A1 2.23871e-06
6 *2274:A2 *1299:34 7.62342e-05
7 *2367:A2 *1400:D 0
8 *2367:A2 *2367:A1 1.34578e-05
9 *2367:A2 *633:100 0
10 *2367:A2 *1299:34 8.08846e-05
*RES
1 *1400:Q *80:4 5 
2 *80:4 *2367:A2 23.3214 
3 *80:4 *2274:A2 29.3929 
*END

*D_NET *81 0.000269659
*CONN
*I *1933:B2 I *D OAI21_X1
*I *2004:A2 I *D NAND2_X1
*I *1401:Q O *D DFF_X1
*CAP
1 *1933:B2 0
2 *2004:A2 5.14248e-05
3 *1401:Q 5.57771e-05
4 *81:12 0.000107202
5 *2004:A2 *1401:D 0
6 *2004:A2 *1933:B1 4.21607e-06
7 *2004:A2 *1936:A1 1.21774e-06
8 *2004:A2 *2005:A2 9.39619e-06
9 *2004:A2 *1280:385 6.91187e-06
10 *81:12 *1401:D 0
11 *81:12 *1401:CK 8.59171e-06
12 *81:12 *1933:B1 8.43215e-07
13 *81:12 *1936:A1 1.87369e-06
14 *81:12 *837:485 8.59171e-06
15 *81:12 *1280:398 1.36133e-05
*RES
1 *1401:Q *81:12 21.5357 
2 *81:12 *2004:A2 10.6786 
3 *81:12 *1933:B2 5 
*END

*D_NET *82 0.000373419
*CONN
*I *2001:A2 I *D NAND2_X1
*I *1896:B2 I *D OAI21_X1
*I *1402:Q O *D DFF_X1
*CAP
1 *2001:A2 5.90357e-05
2 *1896:B2 4.17621e-05
3 *1402:Q 1.46982e-05
4 *82:8 0.000115496
5 *1896:B2 *1402:D 1.52083e-06
6 *1896:B2 *1896:A 1.18232e-06
7 *1896:B2 *1896:B1 4.9678e-06
8 *1896:B2 *1994:B1 2.96955e-05
9 *1896:B2 *756:20 7.72537e-06
10 *1896:B2 *756:41 3.23363e-05
11 *2001:A2 *1402:D 1.58933e-05
12 *2001:A2 *2002:A 2.75346e-06
13 *2001:A2 *756:20 1.90208e-06
14 *2001:A2 *1064:45 1.21774e-06
15 *2001:A2 *1309:55 0
16 *82:8 *1994:B1 4.32319e-05
*RES
1 *1402:Q *82:8 12.2857 
2 *82:8 *1896:B2 15.3571 
3 *82:8 *2001:A2 16.75 
*END

*D_NET *83 0.000190484
*CONN
*I *1883:B2 I *D OAI21_X1
*I *1999:A2 I *D NAND2_X1
*I *1403:Q O *D DFF_X1
*CAP
1 *1883:B2 0
2 *1999:A2 1.58654e-05
3 *1403:Q 4.11457e-05
4 *83:8 5.70112e-05
5 *1999:A2 *1999:A1 2.86663e-05
6 *1999:A2 *2000:A2 1.64202e-05
7 *1999:A2 *1294:67 8.29154e-06
8 *83:8 *1403:D 0
9 *83:8 *1883:B1 1.58933e-05
10 *83:8 *1886:A2 0
11 *83:8 *1999:A1 7.19036e-06
*RES
1 *1403:Q *83:8 9.67857 
2 *83:8 *1999:A2 17.2857 
3 *83:8 *1883:B2 5 
*END

*D_NET *84 0.000253654
*CONN
*I *1846:B2 I *D OAI21_X1
*I *1996:A I *D INV_X1
*I *1404:Q O *D DFF_X1
*CAP
1 *1846:B2 0
2 *1996:A 3.06778e-05
3 *1404:Q 2.46475e-05
4 *84:6 5.53253e-05
5 *1996:A *944:8 1.24557e-05
6 *1996:A *1295:63 7.70247e-05
7 *84:6 *1846:B1 1.51469e-05
8 *84:6 *1304:26 3.83757e-05
*RES
1 *1404:Q *84:6 8.75 
2 *84:6 *1996:A 19.3214 
3 *84:6 *1846:B2 5 
*END

*D_NET *85 0.000280551
*CONN
*I *1817:B2 I *D OAI21_X1
*I *1993:A2 I *D NAND2_X1
*I *1405:Q O *D DFF_X1
*CAP
1 *1817:B2 2.30562e-05
2 *1993:A2 9.69692e-05
3 *1405:Q 0
4 *85:4 0.000120025
5 *1817:B2 *1817:B1 7.16188e-07
6 *1817:B2 *1820:A2 1.76665e-06
7 *1817:B2 *636:107 0
8 *1817:B2 *1077:62 0
9 *1993:A2 *1405:CK 7.78265e-06
10 *1993:A2 *1993:A1 3.02351e-05
11 *1993:A2 *636:107 0
12 *1993:A2 *1077:62 0
*RES
1 *1405:Q *85:4 5 
2 *85:4 *1993:A2 24.9286 
3 *85:4 *1817:B2 7.67857 
*END

*D_NET *86 0.000568295
*CONN
*I *1804:B2 I *D OAI21_X1
*I *1992:A I *D MUX2_X1
*I *1406:Q O *D DFF_X1
*CAP
1 *1804:B2 3.54148e-05
2 *1992:A 3.58384e-05
3 *1406:Q 5.17434e-05
4 *86:8 0.000122997
5 *1804:B2 *1074:16 4.5747e-05
6 *1804:B2 *1280:308 7.9958e-06
7 *1992:A *388:8 2.3767e-06
8 *1992:A *1074:16 0.000112962
9 *1992:A *1087:16 0.000125165
10 *86:8 *837:40 1.35547e-05
11 *86:8 *1074:16 7.19036e-06
12 *86:8 *1280:308 7.31003e-06
*RES
1 *1406:Q *86:8 10.8571 
2 *86:8 *1992:A 22.0357 
3 *86:8 *1804:B2 9.75 
*END

*D_NET *87 0.000152803
*CONN
*I *1756:B2 I *D OAI21_X1
*I *1990:A2 I *D NAND2_X1
*I *1407:Q O *D DFF_X1
*CAP
1 *1756:B2 1.59347e-05
2 *1990:A2 3.35483e-05
3 *1407:Q 0
4 *87:4 4.9483e-05
5 *1756:B2 *1756:B1 2.83434e-06
6 *1756:B2 *1064:35 1.08381e-05
7 *1990:A2 *1407:D 0
8 *1990:A2 *1756:B1 6.48216e-07
9 *1990:A2 *1990:A1 1.21774e-06
10 *1990:A2 *1991:A2 1.11435e-06
11 *1990:A2 *1064:35 3.62228e-05
12 *1990:A2 *1280:370 9.62051e-07
*RES
1 *1407:Q *87:4 5 
2 *87:4 *1990:A2 8.75 
3 *87:4 *1756:B2 7.17857 
*END

*D_NET *88 0.000306899
*CONN
*I *2272:B2 I *D OAI21_X1
*I *2364:A2 I *D NAND2_X1
*I *1408:Q O *D DFF_X1
*CAP
1 *2272:B2 2.40522e-05
2 *2364:A2 7.43901e-05
3 *1408:Q 0
4 *88:6 9.84423e-05
5 *2272:B2 *2275:B1 8.58678e-06
6 *2272:B2 *845:46 1.80284e-05
7 *2272:B2 *1303:1006 1.80284e-05
8 *2272:B2 *1305:42 1.36786e-05
9 *2364:A2 *1408:D 0
10 *2364:A2 *2275:B1 1.67075e-05
11 *2364:A2 *2364:A1 8.43215e-07
12 *2364:A2 *2365:A2 1.40196e-06
13 *2364:A2 *1062:38 2.15006e-06
14 *2364:A2 *1305:42 3.05895e-05
*RES
1 *1408:Q *88:6 10 
2 *88:6 *2364:A2 18.5714 
3 *88:6 *2272:B2 14.0357 
*END

*D_NET *89 0.000381274
*CONN
*I *2024:A2 I *D NAND2_X1
*I *1932:A2 I *D NOR2_X1
*I *1409:Q O *D DFF_X1
*CAP
1 *2024:A2 0
2 *1932:A2 4.54583e-05
3 *1409:Q 8.75805e-05
4 *89:12 0.000133039
5 *1932:A2 *1932:A1 2.3767e-06
6 *1932:A2 *1936:A1 1.77822e-05
7 *1932:A2 *1034:10 2.76278e-05
8 *89:12 *1409:CK 3.49085e-06
9 *89:12 *2025:A1 4.4596e-05
10 *89:12 *1077:53 2.39679e-06
11 *89:12 *1077:62 1.69265e-05
*RES
1 *1409:Q *89:12 25.6071 
2 *89:12 *1932:A2 21.3571 
3 *89:12 *2024:A2 5 
*END

*D_NET *90 0.000562277
*CONN
*I *2021:A2 I *D NAND2_X1
*I *1895:A2 I *D NOR2_X1
*I *1410:Q O *D DFF_X1
*CAP
1 *2021:A2 0
2 *1895:A2 9.24328e-05
3 *1410:Q 4.34917e-05
4 *90:12 0.000135925
5 *1895:A2 *1816:A1 1.17192e-05
6 *1895:A2 *1899:A1 6.21255e-06
7 *1895:A2 *1900:A1 0
8 *1895:A2 *811:40 1.20065e-06
9 *1895:A2 *837:525 0.000221593
10 *1895:A2 *998:10 0
11 *90:12 *1819:A1 2.52965e-06
12 *90:12 *2021:A1 4.54065e-05
13 *90:12 *2022:A 1.76665e-06
14 *1819:A2 *90:12 0
*RES
1 *1410:Q *90:12 10.8571 
2 *90:12 *1895:A2 28.8214 
3 *90:12 *2021:A2 5 
*END

*D_NET *91 0.000415195
*CONN
*I *2019:A2 I *D NAND2_X1
*I *1882:A2 I *D NOR2_X1
*I *1411:Q O *D DFF_X1
*CAP
1 *2019:A2 0
2 *1882:A2 8.53694e-05
3 *1411:Q 4.49476e-05
4 *91:10 0.000130317
5 *1882:A2 *1411:D 0
6 *1882:A2 *1887:A1 4.7412e-05
7 *1882:A2 *2020:A2 1.55671e-05
8 *1882:A2 *837:449 3.94669e-05
9 *1882:A2 *837:451 1.045e-05
10 *1882:A2 *986:8 1.36822e-05
11 *91:10 *1411:D 9.14865e-06
12 *91:10 *1887:A1 0
13 *91:10 *2020:A1 8.43215e-07
14 *91:10 *636:87 0
15 *91:10 *1077:23 2.75346e-06
16 *91:10 *1077:36 1.52374e-05
*RES
1 *1411:Q *91:10 10.6071 
2 *91:10 *1882:A2 27.4643 
3 *91:10 *2019:A2 5 
*END

*D_NET *92 0.000391357
*CONN
*I *2016:A I *D INV_X1
*I *1845:A2 I *D NOR2_X1
*I *1412:Q O *D DFF_X1
*CAP
1 *2016:A 5.18561e-05
2 *1845:A2 0.000109356
3 *1412:Q 0
4 *92:6 0.000161213
5 *1845:A2 *1412:D 1.36926e-05
6 *1845:A2 *1847:A 2.39679e-06
7 *1845:A2 *636:67 0
8 *1845:A2 *837:423 3.71289e-05
9 *2016:A *1412:D 6.21255e-06
10 *2016:A *2017:A 2.75346e-06
11 *2016:A *2017:B1 6.74733e-06
*RES
1 *1412:Q *92:6 10 
2 *92:6 *1845:A2 22.3929 
3 *92:6 *2016:A 15.3929 
*END

*D_NET *93 0.000411565
*CONN
*I *2013:A2 I *D NAND2_X1
*I *1816:A2 I *D NOR2_X1
*I *1413:Q O *D DFF_X1
*CAP
1 *2013:A2 0
2 *1816:A2 7.71407e-05
3 *1413:Q 9.20728e-05
4 *93:8 0.000169213
5 *1816:A2 *1816:A1 2.61265e-05
6 *1816:A2 *2014:A 2.39679e-06
7 *1816:A2 *2014:B1 4.12459e-06
8 *1816:A2 *811:55 1.39834e-05
9 *1816:A2 *998:10 0
10 *1816:A2 *1077:64 1.38047e-05
11 *93:8 *1413:D 7.90853e-06
12 *93:8 *2014:A 4.79358e-06
*RES
1 *1413:Q *93:8 14.9286 
2 *93:8 *1816:A2 23.6429 
3 *93:8 *2013:A2 5 
*END

*D_NET *94 0.000223026
*CONN
*I *2012:A I *D MUX2_X1
*I *1803:A2 I *D NOR2_X1
*I *1414:Q O *D DFF_X1
*CAP
1 *2012:A 2.85406e-05
2 *1803:A2 3.5198e-05
3 *1414:Q 0
4 *94:4 6.37386e-05
5 *1803:A2 *1803:A1 1.63647e-05
6 *1803:A2 *1280:325 4.38826e-05
7 *2012:A *1803:A1 2.70522e-05
8 *2012:A *1280:325 8.24917e-06
*RES
1 *1414:Q *94:4 5 
2 *94:4 *1803:A2 10.1786 
3 *94:4 *2012:A 9.60714 
*END

*D_NET *95 0.000491431
*CONN
*I *2010:A2 I *D NAND2_X1
*I *1753:A2 I *D NOR2_X1
*I *1415:Q O *D DFF_X1
*CAP
1 *2010:A2 2.50861e-05
2 *1753:A2 0.000109833
3 *1415:Q 0
4 *95:4 0.000134919
5 *1753:A2 *1761:A1 1.14339e-05
6 *1753:A2 *1763:A1 0.000193363
7 *1753:A2 *1280:370 8.34508e-06
8 *2010:A2 *2010:A1 2.16072e-07
9 *2010:A2 *2011:A1 0
10 *2010:A2 *1308:12 8.23621e-06
*RES
1 *1415:Q *95:4 5 
2 *95:4 *1753:A2 29.6786 
3 *95:4 *2010:A2 7.67857 
*END

*D_NET *96 0.00027865
*CONN
*I *2361:A2 I *D NAND2_X1
*I *2271:A2 I *D NOR2_X1
*I *1416:Q O *D DFF_X1
*CAP
1 *2361:A2 1.77571e-05
2 *2271:A2 6.35317e-05
3 *1416:Q 0
4 *96:4 8.12888e-05
5 *2271:A2 *1416:D 2.51177e-05
6 *2271:A2 *2362:A2 4.24402e-05
7 *2271:A2 *636:76 5.75863e-06
8 *2271:A2 *837:449 1.37734e-05
9 *2271:A2 *1075:53 1.84849e-05
10 *2271:A2 *1077:8 0
11 *2361:A2 *1416:D 4.9678e-06
12 *2361:A2 *2018:A2 5.52959e-06
*RES
1 *1416:Q *96:4 5 
2 *96:4 *2271:A2 23.75 
3 *96:4 *2361:A2 7.17857 
*END

*D_NET *97 0.000243039
*CONN
*I *1928:B2 I *D OAI21_X1
*I *2044:A2 I *D NAND2_X1
*I *1417:Q O *D DFF_X1
*CAP
1 *1928:B2 6.01738e-05
2 *2044:A2 1.84251e-05
3 *1417:Q 2.6773e-05
4 *97:8 0.000105372
5 *1928:B2 *1417:D 0
6 *1928:B2 *2045:A2 1.18547e-06
7 *1928:B2 *1292:119 7.72792e-06
8 *1928:B2 *1303:400 1.10645e-05
9 *2044:A2 *1417:D 1.35285e-06
10 *2044:A2 *2044:A1 1.21774e-06
11 *2044:A2 *2045:A1 4.06355e-06
12 *2044:A2 *1303:400 0
13 *97:8 *1417:D 2.97473e-06
14 *97:8 *2045:A1 2.70833e-06
15 *97:8 *2045:A2 0
*RES
1 *1417:Q *97:8 8.35714 
2 *97:8 *2044:A2 7.25 
3 *97:8 *1928:B2 11.3929 
*END

*D_NET *98 0.000201547
*CONN
*I *2041:A2 I *D NAND2_X1
*I *1902:A2 I *D NOR2_X1
*I *1418:Q O *D DFF_X1
*CAP
1 *2041:A2 0
2 *1902:A2 4.55185e-05
3 *1418:Q 4.53453e-05
4 *98:8 9.08638e-05
5 *1902:A2 *1333:D 0
6 *1902:A2 *2041:A1 1.08036e-06
7 *1902:A2 *2042:B1 1.85225e-05
8 *98:8 *1333:D 0
9 *98:8 *2041:A1 2.16072e-07
*RES
1 *1418:Q *98:8 9.89286 
2 *98:8 *1902:A2 9.75 
3 *98:8 *2041:A2 5 
*END

*D_NET *99 0.000755663
*CONN
*I *1878:B2 I *D OAI21_X1
*I *2039:A2 I *D NAND2_X1
*I *1419:Q O *D DFF_X1
*CAP
1 *1878:B2 0.000126719
2 *2039:A2 2.91771e-05
3 *1419:Q 9.9794e-05
4 *99:8 0.00025569
5 *1878:B2 *1419:D 0
6 *1878:B2 *1878:B1 6.0887e-06
7 *1878:B2 *1881:A1 0.000120902
8 *1878:B2 *2040:A1 2.39679e-06
9 *1878:B2 *376:78 0
10 *1878:B2 *378:63 6.47929e-06
11 *2039:A2 *1419:D 6.32202e-06
12 *2039:A2 *1881:A1 1.06702e-05
13 *2039:A2 *2040:A1 6.68461e-05
14 *99:8 *1419:D 2.45782e-05
15 *99:8 *1875:A1 0
16 *99:8 *595:16 0
*RES
1 *1419:Q *99:8 21.7857 
2 *99:8 *2039:A2 14.3214 
3 *99:8 *1878:B2 25.9286 
*END

*D_NET *100 0.000529013
*CONN
*I *2036:A I *D INV_X1
*I *1851:B2 I *D OAI21_X1
*I *1420:Q O *D DFF_X1
*CAP
1 *2036:A 0
2 *1851:B2 4.96199e-05
3 *1420:Q 4.28815e-05
4 *100:8 9.25013e-05
5 *1851:B2 *2035:A1 1.0863e-05
6 *1851:B2 *2037:B1 0.000119619
7 *1851:B2 *1088:23 1.96924e-05
8 *1851:B2 *1088:38 5.41015e-05
9 *1851:B2 *1088:51 8.85917e-05
10 *1851:B2 *1295:212 6.32202e-06
11 *100:8 *1088:55 6.44574e-06
12 *100:8 *1280:183 3.83757e-05
*RES
1 *1420:Q *100:8 10.3571 
2 *100:8 *1851:B2 25.4286 
3 *100:8 *2036:A 5 
*END

*D_NET *101 0.000416178
*CONN
*I *1823:A2 I *D NOR2_X1
*I *2033:A2 I *D NAND2_X1
*I *1421:Q O *D DFF_X1
*CAP
1 *1823:A2 0.000113382
2 *2033:A2 7.32402e-05
3 *1421:Q 0
4 *101:4 0.000186623
5 *1823:A2 *1421:CK 0
6 *1823:A2 *1824:B1 1.21717e-05
7 *1823:A2 *2034:B1 0
8 *1823:A2 *756:122 0
9 *1823:A2 *1303:601 2.31997e-05
10 *2033:A2 *2034:A 2.16072e-07
11 *2033:A2 *2034:B1 7.34533e-06
*RES
1 *1421:Q *101:4 5 
2 *101:4 *2033:A2 22.8929 
3 *101:4 *1823:A2 17.6786 
*END

*D_NET *102 0.000247209
*CONN
*I *1799:B2 I *D OAI21_X1
*I *2032:A I *D MUX2_X1
*I *1422:Q O *D DFF_X1
*CAP
1 *1799:B2 1.61358e-05
2 *2032:A 0
3 *1422:Q 4.40893e-06
4 *102:8 2.05447e-05
5 *1799:B2 *1422:D 6.3392e-05
6 *1799:B2 *1799:A 8.11741e-05
7 *102:8 *1422:D 3.07768e-05
8 *102:8 *1799:A 3.07768e-05
*RES
1 *1422:Q *102:8 11.6071 
2 *102:8 *2032:A 10 
3 *102:8 *1799:B2 14.3214 
*END

*D_NET *103 7.46578e-05
*CONN
*I *1767:A2 I *D NOR2_X1
*I *2030:A2 I *D NAND2_X1
*I *1423:Q O *D DFF_X1
*CAP
1 *1767:A2 2.92256e-05
2 *2030:A2 0
3 *1423:Q 8.10334e-06
4 *103:8 3.73289e-05
5 *1767:A2 *1292:171 0
6 *103:8 *1292:171 0
*RES
1 *1423:Q *103:8 10.9286 
2 *103:8 *2030:A2 10 
3 *103:8 *1767:A2 12.9643 
*END

*D_NET *104 0.000308233
*CONN
*I *2267:B2 I *D OAI21_X1
*I *2358:A2 I *D NAND2_X1
*I *1424:Q O *D DFF_X1
*CAP
1 *2267:B2 8.56578e-05
2 *2358:A2 0
3 *1424:Q 5.44934e-06
4 *104:6 9.11071e-05
5 *2267:B2 *2277:A1 3.90865e-05
6 *2267:B2 *2357:A1 4.90637e-05
7 *2267:B2 *2358:A1 2.75346e-06
8 *2267:B2 *2359:A1 6.33411e-06
9 *2267:B2 *2359:A2 1.42309e-05
10 *2267:B2 *853:42 7.98822e-06
11 *2267:B2 *1100:88 0
12 *104:6 *2359:A2 6.56185e-06
*RES
1 *1424:Q *104:6 5.92857 
2 *104:6 *2358:A2 5 
3 *104:6 *2267:B2 17.3571 
*END

*D_NET *105 0.00046991
*CONN
*I *2062:A2 I *D NAND2_X1
*I *1929:A2 I *D NOR2_X1
*I *1425:Q O *D DFF_X1
*CAP
1 *2062:A2 1.45077e-05
2 *1929:A2 0.000117818
3 *1425:Q 4.18385e-05
4 *105:8 0.000174165
5 *1929:A2 *2043:A2 2.15387e-05
6 *1929:A2 *593:43 0
7 *1929:A2 *593:45 0
8 *1929:A2 *593:51 0
9 *1929:A2 *1027:10 7.66905e-06
10 *1929:A2 *1088:84 6.66761e-05
11 *2062:A2 *593:43 0
12 *2062:A2 *1088:84 1.65484e-05
13 *105:8 *2029:A 0
14 *105:8 *2061:A1 0
15 *105:8 *2063:A2 9.14865e-06
16 *105:8 *1113:44 0
*RES
1 *1425:Q *105:8 14.25 
2 *105:8 *1929:A2 24.5 
3 *105:8 *2062:A2 12.2857 
*END

*D_NET *106 0.000420094
*CONN
*I *2059:A2 I *D NAND2_X1
*I *1901:B2 I *D OAI21_X1
*I *1426:Q O *D DFF_X1
*CAP
1 *2059:A2 4.18474e-05
2 *1901:B2 6.27677e-05
3 *1426:Q 2.53994e-05
4 *106:8 0.000130015
5 *1901:B2 *1426:CK 1.95854e-05
6 *1901:B2 *1901:B1 3.09411e-06
7 *1901:B2 *2060:B1 1.55241e-05
8 *1901:B2 *378:78 5.08499e-06
9 *1901:B2 *593:10 3.77514e-06
10 *1901:B2 *593:21 2.10286e-06
11 *1901:B2 *593:29 0
12 *1901:B2 *1090:63 0
13 *2059:A2 *1426:CK 1.28122e-06
14 *2059:A2 *2060:A 2.39679e-06
15 *2059:A2 *2060:B1 2.34839e-05
16 *2059:A2 *593:29 7.08848e-05
17 *106:8 *378:78 1.01834e-05
18 *106:8 *593:21 7.11905e-07
19 *106:8 *593:247 1.95623e-06
*RES
1 *1426:Q *106:8 12.9643 
2 *106:8 *1901:B2 17.3929 
3 *106:8 *2059:A2 16.75 
*END

*D_NET *107 0.000659527
*CONN
*I *1879:A2 I *D NOR2_X1
*I *2057:A2 I *D NAND2_X1
*I *1427:Q O *D DFF_X1
*CAP
1 *1879:A2 0
2 *2057:A2 8.57478e-05
3 *1427:Q 8.71544e-05
4 *107:12 0.000172902
5 *2057:A2 *1427:CK 7.72792e-06
6 *2057:A2 *1879:A1 8.43215e-07
7 *2057:A2 *2056:A1 0
8 *2057:A2 *2058:A2 3.49085e-06
9 *2057:A2 *150:10 0
10 *2057:A2 *1280:195 4.93921e-05
11 *107:12 *1427:CK 0
12 *107:12 *1876:A1 2.54476e-05
13 *107:12 *1879:A1 6.92212e-05
14 *107:12 *1880:A2 0
15 *107:12 *150:10 0.000120658
16 *107:12 *376:65 3.69417e-05
*RES
1 *1427:Q *107:12 30.1071 
2 *107:12 *2057:A2 25.4286 
3 *107:12 *1879:A2 5 
*END

*D_NET *108 9.74497e-05
*CONN
*I *1849:A I *D INV_X1
*I *1428:Q O *D DFF_X1
*CAP
1 *1849:A 4.75264e-05
2 *1428:Q 4.75264e-05
3 *1849:A *1428:CK 0
4 *1849:A *2055:B1 2.39679e-06
5 *1849:A *949:6 0
*RES
1 *1428:Q *1849:A 14.6786 
*END

*D_NET *109 0.000492554
*CONN
*I *1822:B2 I *D OAI21_X1
*I *2052:A2 I *D NAND2_X1
*I *1429:Q O *D DFF_X1
*CAP
1 *1822:B2 7.34613e-05
2 *2052:A2 6.56492e-05
3 *1429:Q 4.67805e-05
4 *109:8 0.000185891
5 *1822:B2 *1429:CK 5.98709e-05
6 *1822:B2 *2053:B1 2.87703e-06
7 *1822:B2 *378:74 7.12794e-06
8 *1822:B2 *593:247 2.52965e-06
9 *2052:A2 *1429:CK 1.87392e-05
10 *2052:A2 *2053:A 2.39679e-06
11 *2052:A2 *2053:B1 2.72302e-05
12 *2052:A2 *378:74 0
*RES
1 *1429:Q *109:8 15 
2 *109:8 *2052:A2 17.8571 
3 *109:8 *1822:B2 18.75 
*END

*D_NET *110 0.000416817
*CONN
*I *1800:A2 I *D NOR2_X1
*I *2051:A I *D MUX2_X1
*I *1430:Q O *D DFF_X1
*CAP
1 *1800:A2 9.1095e-05
2 *2051:A 0
3 *1430:Q 2.30859e-05
4 *110:8 0.000114181
5 *1800:A2 *1438:CK 2.16603e-05
6 *1800:A2 *1801:B1 5.62265e-05
7 *1800:A2 *1801:B2 0
8 *1800:A2 *2051:B 8.99246e-06
9 *1800:A2 *1100:12 0.000101359
10 *110:8 *2051:B 2.16072e-07
*RES
1 *1430:Q *110:8 7.35714 
2 *110:8 *2051:A 5 
3 *110:8 *1800:A2 28.2143 
*END

*D_NET *111 0.00033609
*CONN
*I *2049:A2 I *D NAND2_X1
*I *1765:B2 I *D OAI21_X1
*I *1431:Q O *D DFF_X1
*CAP
1 *2049:A2 0
2 *1765:B2 4.52571e-05
3 *1431:Q 8.69886e-05
4 *111:12 0.000132246
5 *1765:B2 *1431:D 7.65033e-06
6 *111:12 *1431:D 1.16091e-05
7 *111:12 *1431:CK 1.46241e-05
8 *111:12 *609:197 2.39679e-06
9 *111:12 *609:216 1.67419e-05
10 *111:12 *1102:39 2.39679e-06
11 *111:12 *1102:48 1.61801e-05
*RES
1 *1431:Q *111:12 25.6071 
2 *111:12 *1765:B2 19.3214 
3 *111:12 *2049:A2 5 
*END

*D_NET *112 0.000328553
*CONN
*I *2268:A2 I *D NOR2_X1
*I *2355:A2 I *D NAND2_X1
*I *1432:Q O *D DFF_X1
*CAP
1 *2268:A2 5.20913e-05
2 *2355:A2 0
3 *1432:Q 7.40515e-05
4 *112:12 0.000126143
5 *2268:A2 *2269:B2 1.76665e-06
6 *2268:A2 *2354:A1 4.23667e-05
7 *2268:A2 *853:27 0
8 *2268:A2 *876:43 7.27894e-06
9 *2268:A2 *1102:12 2.75346e-06
10 *112:12 *1432:D 0
11 *112:12 *2354:A1 2.75346e-06
12 *112:12 *2356:A1 2.23415e-06
13 *112:12 *2356:A2 0
14 *112:12 *148:10 0
15 *112:12 *1100:77 0
16 *112:12 *1102:12 1.71137e-05
17 *112:12 *1102:18 0
*RES
1 *1432:Q *112:12 22.8929 
2 *112:12 *2355:A2 5 
3 *112:12 *2268:A2 11.6071 
*END

*D_NET *113 0.000269025
*CONN
*I *1927:B2 I *D OAI21_X1
*I *2081:A2 I *D NAND2_X1
*I *1433:Q O *D DFF_X1
*CAP
1 *1927:B2 4.2193e-05
2 *2081:A2 5.76947e-05
3 *1433:Q 0
4 *113:6 9.98877e-05
5 *1927:B2 *1313:56 1.78847e-05
6 *2081:A2 *1433:D 0
7 *2081:A2 *2065:A2 5.52692e-06
8 *2081:A2 *2080:A1 8.43215e-07
9 *2081:A2 *2081:A1 8.43215e-07
10 *2081:A2 *2082:A1 2.61827e-06
11 *2081:A2 *1111:89 6.57954e-06
12 *2081:A2 *1313:56 6.66374e-06
13 *2081:A2 *1313:71 2.82896e-05
*RES
1 *1433:Q *113:6 10 
2 *113:6 *2081:A2 17.0357 
3 *113:6 *1927:B2 15.6786 
*END

*D_NET *114 0.000193415
*CONN
*I *1903:B2 I *D OAI21_X1
*I *2078:A2 I *D NAND2_X1
*I *1434:Q O *D DFF_X1
*CAP
1 *1903:B2 0
2 *2078:A2 1.70366e-05
3 *1434:Q 3.29151e-05
4 *114:6 4.99518e-05
5 *2078:A2 *2079:B2 3.02351e-05
6 *2078:A2 *1113:65 1.2203e-05
7 *114:6 *1903:B1 4.38826e-05
8 *114:6 *2078:A1 7.19036e-06
9 *114:6 *2079:A 0
10 *114:6 *2079:B1 0
*RES
1 *1434:Q *114:6 9.25 
2 *114:6 *2078:A2 17.2857 
3 *114:6 *1903:B2 5 
*END

*D_NET *115 0.00035418
*CONN
*I *2076:A2 I *D NAND2_X1
*I *1877:B2 I *D OAI21_X1
*I *1435:Q O *D DFF_X1
*CAP
1 *2076:A2 0
2 *1877:B2 0.000113659
3 *1435:Q 8.71307e-06
4 *115:6 0.000122372
5 *1877:B2 *2057:A1 0
6 *1877:B2 *148:10 0.000109436
7 *1877:B2 *1102:8 0
*RES
1 *1435:Q *115:6 5.92857 
2 *115:6 *1877:B2 30.1786 
3 *115:6 *2076:A2 5 
*END

*D_NET *116 4.76212e-05
*CONN
*I *1853:B2 I *D OAI21_X1
*I *2073:A I *D INV_X1
*I *1436:Q O *D DFF_X1
*CAP
1 *1853:B2 1.39074e-05
2 *2073:A 0
3 *1436:Q 6.62225e-06
4 *116:6 2.05296e-05
5 *116:6 *2072:A1 6.56185e-06
*RES
1 *1436:Q *116:6 5.92857 
2 *116:6 *2073:A 5 
3 *116:6 *1853:B2 6.60714 
*END

*D_NET *117 0.00026636
*CONN
*I *1824:B2 I *D OAI21_X1
*I *2070:A2 I *D NAND2_X1
*I *1437:Q O *D DFF_X1
*CAP
1 *1824:B2 2.64517e-05
2 *2070:A2 5.83591e-05
3 *1437:Q 3.94781e-05
4 *117:8 0.000124289
5 *1824:B2 *915:12 0
6 *2070:A2 *1834:A3 0
7 *2070:A2 *2071:A 1.77822e-05
8 *117:8 *1824:B1 0
*RES
1 *1437:Q *117:8 13.75 
2 *117:8 *2070:A2 16.3571 
3 *117:8 *1824:B2 12.9643 
*END

*D_NET *118 0.000502141
*CONN
*I *2069:A I *D MUX2_X1
*I *1797:B2 I *D OAI21_X1
*I *1438:Q O *D DFF_X1
*CAP
1 *2069:A 0
2 *1797:B2 4.6491e-05
3 *1438:Q 9.60059e-05
4 *118:8 0.000142497
5 *1797:B2 *1797:B1 3.02351e-05
6 *1797:B2 *2069:B 2.16603e-05
7 *1797:B2 *2069:S 6.32461e-06
8 *1797:B2 *1297:147 3.18816e-05
9 *118:8 *2069:B 1.46625e-05
10 *118:8 *2069:S 3.66854e-05
11 *118:8 *1111:27 7.56973e-05
*RES
1 *1438:Q *118:8 25.1786 
2 *118:8 *1797:B2 17.0357 
3 *118:8 *2069:A 10 
*END

*D_NET *119 0.000287365
*CONN
*I *2067:A2 I *D NAND2_X1
*I *1770:B2 I *D OAI21_X1
*I *1439:Q O *D DFF_X1
*CAP
1 *2067:A2 0
2 *1770:B2 2.79571e-05
3 *1439:Q 8.71307e-06
4 *119:6 3.66701e-05
5 *1770:B2 *1783:A3 5.11191e-06
6 *1770:B2 *2067:A1 7.82575e-05
7 *1770:B2 *595:166 8.122e-06
8 *1770:B2 *876:75 7.98429e-05
9 *1770:B2 *876:81 2.96955e-05
10 *1770:B2 *1113:46 1.29947e-05
*RES
1 *1439:Q *119:6 5.92857 
2 *119:6 *1770:B2 21.3571 
3 *119:6 *2067:A2 5 
*END

*D_NET *120 0.000671997
*CONN
*I *2266:B2 I *D OAI21_X1
*I *2352:A2 I *D NAND2_X1
*I *1440:Q O *D DFF_X1
*CAP
1 *2266:B2 5.78995e-05
2 *2352:A2 9.47973e-05
3 *1440:Q 0
4 *120:6 0.000152697
5 *2266:B2 *1299:121 0.000181136
6 *2352:A2 *1440:D 9.44188e-05
7 *2352:A2 *1440:CK 0
8 *2352:A2 *1299:121 9.10489e-05
*RES
1 *1440:Q *120:6 10 
2 *120:6 *2352:A2 23.1429 
3 *120:6 *2266:B2 19.75 
*END

*D_NET *121 0.000721807
*CONN
*I *1926:A2 I *D NOR2_X1
*I *2100:A2 I *D NAND2_X1
*I *1441:Q O *D DFF_X1
*CAP
1 *1926:A2 0.000128236
2 *2100:A2 0
3 *1441:Q 9.22012e-05
4 *121:12 0.000220437
5 *1926:A2 *1926:A1 1.21774e-06
6 *1926:A2 *1930:A2 1.88066e-05
7 *1926:A2 *2100:A1 5.52959e-06
8 *1926:A2 *2101:A1 0
9 *1926:A2 *609:187 0.000107735
10 *1926:A2 *1292:138 0
11 *121:12 *1424:D 0
12 *121:12 *1424:CK 0
13 *121:12 *2099:A2 8.00929e-05
14 *121:12 *2100:A1 1.74984e-05
15 *121:12 *1113:40 3.90865e-05
16 *121:12 *1313:56 1.09663e-05
*RES
1 *1441:Q *121:12 27.1429 
2 *121:12 *2100:A2 5 
3 *121:12 *1926:A2 21.9286 
*END

*D_NET *122 0.000300889
*CONN
*I *2097:A2 I *D NAND2_X1
*I *1904:A2 I *D NOR2_X1
*I *1442:Q O *D DFF_X1
*CAP
1 *2097:A2 5.28517e-05
2 *1904:A2 6.52413e-05
3 *1442:Q 2.02746e-05
4 *122:6 0.000138368
5 *1904:A2 *2098:A 0
6 *1904:A2 *811:121 0
7 *2097:A2 *1442:D 7.50823e-06
8 *2097:A2 *2097:A1 8.43215e-07
9 *2097:A2 *2098:A 2.39679e-06
10 *2097:A2 *811:121 8.62199e-06
11 *2097:A2 *1316:109 4.78395e-06
12 *122:6 *2098:A 0
*RES
1 *1442:Q *122:6 7.28572 
2 *122:6 *1904:A2 11.7857 
3 *122:6 *2097:A2 11.25 
*END

*D_NET *123 0.000198274
*CONN
*I *2095:A2 I *D NAND2_X1
*I *1876:A2 I *D NOR2_X1
*I *1443:Q O *D DFF_X1
*CAP
1 *2095:A2 6.43836e-06
2 *1876:A2 3.07174e-05
3 *1443:Q 3.98481e-05
4 *123:12 7.70039e-05
5 *1876:A2 *1314:34 2.58428e-06
6 *2095:A2 *2095:A1 2.75346e-06
7 *2095:A2 *436:52 1.86809e-06
8 *123:12 *1443:D 1.62377e-05
9 *123:12 *2096:A2 4.12911e-06
10 *123:12 *150:10 1.11502e-06
11 *123:12 *436:42 1.26036e-05
12 *123:12 *436:52 2.97473e-06
13 *123:12 *1314:34 0
*RES
1 *1443:Q *123:12 20.0357 
2 *123:12 *1876:A2 8.53572 
3 *123:12 *2095:A2 6.25 
*END

*D_NET *124 0.000226985
*CONN
*I *2092:A I *D INV_X1
*I *1852:A2 I *D NOR2_X1
*I *1444:Q O *D DFF_X1
*CAP
1 *2092:A 0
2 *1852:A2 2.3722e-05
3 *1444:Q 4.80713e-05
4 *124:8 7.17932e-05
5 *1852:A2 *1444:D 0
6 *1852:A2 *376:27 6.97608e-05
7 *124:8 *1444:D 5.75996e-06
8 *124:8 *1852:A1 7.87811e-06
9 *124:8 *2091:A1 0
10 *124:8 *2093:B1 0
*RES
1 *1444:Q *124:8 10.3571 
2 *124:8 *1852:A2 18.6429 
3 *124:8 *2092:A 5 
*END

*D_NET *125 0.000634439
*CONN
*I *2089:A2 I *D NAND2_X1
*I *1825:A2 I *D NOR2_X1
*I *1445:Q O *D DFF_X1
*CAP
1 *2089:A2 5.74659e-05
2 *1825:A2 0.000143124
3 *1445:Q 3.63359e-05
4 *125:8 0.000236926
5 *1825:A2 *1825:A1 2.22609e-05
6 *1825:A2 *1826:A1 1.85291e-06
7 *1825:A2 *837:305 6.00961e-05
8 *1825:A2 *853:85 0
9 *2089:A2 *1445:D 1.89851e-06
10 *2089:A2 *1445:CK 3.83783e-05
11 *2089:A2 *2089:A1 2.75346e-06
12 *2089:A2 *2090:A 1.25189e-05
13 *125:8 *837:305 2.08287e-05
*RES
1 *1445:Q *125:8 15 
2 *125:8 *1825:A2 28.25 
3 *125:8 *2089:A2 16.75 
*END

*D_NET *126 0.000111124
*CONN
*I *1796:A2 I *D NOR2_X1
*I *2088:A I *D MUX2_X1
*I *1446:Q O *D DFF_X1
*CAP
1 *1796:A2 0
2 *2088:A 2.84478e-05
3 *1446:Q 9.11724e-06
4 *126:6 3.7565e-05
5 *2088:A *376:27 1.65276e-05
6 *2088:A *1088:23 1.94663e-05
7 *126:6 *1800:A1 0
*RES
1 *1446:Q *126:6 5.92857 
2 *126:6 *2088:A 18.6429 
3 *126:6 *1796:A2 5 
*END

*D_NET *127 0.000741584
*CONN
*I *2086:A2 I *D NAND2_X1
*I *1771:A2 I *D NOR2_X1
*I *1447:Q O *D DFF_X1
*CAP
1 *2086:A2 0
2 *1771:A2 0.000125539
3 *1447:Q 3.99052e-05
4 *127:8 0.000165445
5 *1771:A2 *593:43 4.86855e-05
6 *1771:A2 *851:10 0.000269346
7 *1771:A2 *968:10 3.87719e-05
8 *1771:A2 *1090:52 0
9 *127:8 *1888:A1 4.31693e-05
10 *127:8 *2087:A2 9.87781e-06
11 *127:8 *378:67 0
12 *127:8 *378:74 8.43215e-07
*RES
1 *1447:Q *127:8 10.1786 
2 *127:8 *1771:A2 34.25 
3 *127:8 *2086:A2 5 
*END

*D_NET *128 0.00078003
*CONN
*I *2349:A2 I *D NAND2_X1
*I *2265:A2 I *D NOR2_X1
*I *1448:Q O *D DFF_X1
*CAP
1 *2349:A2 1.69921e-05
2 *2265:A2 8.35309e-05
3 *1448:Q 0
4 *128:4 0.000100523
5 *2265:A2 *2266:A 1.72405e-05
6 *2265:A2 *436:52 1.39265e-05
7 *2265:A2 *837:158 3.02351e-05
8 *2265:A2 *837:169 6.26003e-05
9 *2265:A2 *837:209 0.000179554
10 *2265:A2 *1280:217 0.000259647
11 *2349:A2 *2095:A1 2.52965e-06
12 *2349:A2 *436:52 1.32507e-05
*RES
1 *1448:Q *128:4 5 
2 *128:4 *2265:A2 33.25 
3 *128:4 *2349:A2 7.17857 
*END

*D_NET *129 0.000263002
*CONN
*I *1916:B2 I *D OAI21_X1
*I *2120:A2 I *D NAND2_X1
*I *1449:Q O *D DFF_X1
*CAP
1 *1916:B2 4.24434e-05
2 *2120:A2 5.76725e-05
3 *1449:Q 0
4 *129:4 0.000100116
5 *1916:B2 *1916:B1 2.75346e-06
6 *1916:B2 *1917:A1 1.73125e-05
7 *1916:B2 *609:56 4.91141e-06
8 *2120:A2 *2120:A1 8.43215e-07
9 *2120:A2 *391:66 3.6949e-05
*RES
1 *1449:Q *129:4 5 
2 *129:4 *2120:A2 11.7143 
3 *129:4 *1916:B2 10.3571 
*END

*D_NET *130 0.000421225
*CONN
*I *1908:A2 I *D NOR2_X1
*I *2117:A2 I *D NAND2_X1
*I *1450:Q O *D DFF_X1
*CAP
1 *1908:A2 0.000144218
2 *2117:A2 8.71307e-06
3 *1450:Q 4.23653e-05
4 *130:6 0.000195296
5 *1908:A2 *1450:CK 0
6 *1908:A2 *2118:A 0
7 *1908:A2 *2118:B1 0
8 *1908:A2 *391:68 3.04174e-05
9 *1908:A2 *1311:90 0
10 *130:6 *1450:D 0
11 *130:6 *1450:CK 0
12 *130:6 *2110:A 0
13 *130:6 *391:68 2.16072e-07
*RES
1 *1450:Q *130:6 9.25 
2 *130:6 *2117:A2 5.92857 
3 *130:6 *1908:A2 19.75 
*END

*D_NET *131 0.000343567
*CONN
*I *2115:A2 I *D NAND2_X1
*I *1866:B2 I *D OAI21_X1
*I *1451:Q O *D DFF_X1
*CAP
1 *2115:A2 5.88811e-05
2 *1866:B2 0
3 *1451:Q 4.33094e-05
4 *131:8 0.000102191
5 *2115:A2 *2116:A1 8.43215e-07
6 *2115:A2 *389:37 2.39679e-06
7 *2115:A2 *389:50 1.43807e-05
8 *2115:A2 *391:6 1.54649e-06
9 *2115:A2 *609:45 1.73125e-05
10 *2115:A2 *964:12 6.70962e-05
11 *131:8 *391:6 7.16188e-07
12 *131:8 *391:20 1.40785e-05
13 *131:8 *609:35 4.67746e-06
14 *131:8 *609:45 1.61382e-05
*RES
1 *1451:Q *131:8 10.3571 
2 *131:8 *1866:B2 5 
3 *131:8 *2115:A2 22.1429 
*END

*D_NET *132 0.000211618
*CONN
*I *1858:B2 I *D OAI21_X1
*I *2112:A I *D INV_X1
*I *1452:Q O *D DFF_X1
*CAP
1 *1858:B2 0
2 *2112:A 2.26682e-05
3 *1452:Q 6.69772e-05
4 *132:8 8.96454e-05
5 *2112:A *1861:B2 1.61523e-05
6 *2112:A *884:44 0
7 *132:8 *1452:CK 3.52448e-06
8 *132:8 *1858:B1 1.2651e-05
9 *132:8 *1860:A 0
10 *132:8 *884:44 0
*RES
1 *1452:Q *132:8 12.2143 
2 *132:8 *2112:A 7.96429 
3 *132:8 *1858:B2 5 
*END

*D_NET *133 0.000405229
*CONN
*I *1829:A2 I *D NOR2_X1
*I *2109:A2 I *D NAND2_X1
*I *1453:Q O *D DFF_X1
*CAP
1 *1829:A2 0.000122574
2 *2109:A2 7.68981e-05
3 *1453:Q 0
4 *133:4 0.000199472
5 *2109:A2 *2110:A 2.16072e-07
6 *2109:A2 *2110:B1 6.06867e-06
7 *1830:B2 *1829:A2 0
*RES
1 *1453:Q *133:4 5 
2 *133:4 *2109:A2 13.0714 
3 *133:4 *1829:A2 17.1786 
*END

*D_NET *134 0.000207792
*CONN
*I *1786:B2 I *D OAI21_X1
*I *2108:A I *D MUX2_X1
*I *1454:Q O *D DFF_X1
*CAP
1 *1786:B2 2.21146e-05
2 *2108:A 0
3 *1454:Q 9.06068e-06
4 *134:8 3.11752e-05
5 *1786:B2 *1454:D 6.41837e-05
6 *1786:B2 *389:23 3.5704e-05
7 *1786:B2 *1297:98 9.24246e-06
8 *134:8 *1454:D 2.99872e-05
9 *134:8 *389:23 6.32461e-06
*RES
1 *1454:Q *134:8 11.6071 
2 *134:8 *2108:A 10 
3 *134:8 *1786:B2 15 
*END

*D_NET *135 0.000425489
*CONN
*I *1776:A2 I *D NOR2_X1
*I *2106:A2 I *D NAND2_X1
*I *1455:Q O *D DFF_X1
*CAP
1 *1776:A2 3.89517e-05
2 *2106:A2 2.41365e-05
3 *1455:Q 5.88798e-05
4 *135:10 0.000121968
5 *1776:A2 *1455:CK 4.9678e-06
6 *1776:A2 *1780:A2 1.74934e-05
7 *1776:A2 *424:37 5.84468e-05
8 *1776:A2 *1316:60 5.26342e-06
9 *2106:A2 *1780:B2 2.47397e-05
10 *2106:A2 *2107:A2 1.10989e-05
11 *2106:A2 *1298:107 4.8054e-07
12 *135:10 *1780:B2 5.90628e-05
13 *135:10 *884:53 0
*RES
1 *1455:Q *135:10 17.3929 
2 *135:10 *2106:A2 13.6429 
3 *135:10 *1776:A2 15.75 
*END

*D_NET *136 0.000158915
*CONN
*I *2255:B2 I *D OAI21_X1
*I *2346:A2 I *D NAND2_X1
*I *1456:Q O *D DFF_X1
*CAP
1 *2255:B2 5.22463e-06
2 *2346:A2 3.53947e-05
3 *1456:Q 2.70195e-05
4 *136:6 6.76388e-05
5 *2255:B2 *2255:A 3.58094e-06
6 *2255:B2 *2346:A1 1.21774e-06
7 *2346:A2 *2254:A 0
8 *2346:A2 *2346:A1 8.43215e-07
9 *2346:A2 *595:68 1.32323e-05
10 *136:6 *2255:A 4.76331e-06
11 *136:6 *595:68 0
*RES
1 *1456:Q *136:6 7.75 
2 *136:6 *2346:A2 9.21429 
3 *136:6 *2255:B2 6.25 
*END

*D_NET *137 0.000582548
*CONN
*I *1917:A2 I *D NOR2_X1
*I *2138:A2 I *D NAND2_X1
*I *1457:Q O *D DFF_X1
*CAP
1 *1917:A2 0.000118064
2 *2138:A2 7.21515e-05
3 *1457:Q 0
4 *137:6 0.000190216
5 *1917:A2 *1918:A2 6.21219e-05
6 *1917:A2 *2121:A2 6.60203e-05
7 *2138:A2 *1457:CK 6.11168e-05
8 *2138:A2 *403:59 1.28574e-05
*RES
1 *1457:Q *137:6 10 
2 *137:6 *2138:A2 19.3929 
3 *137:6 *1917:A2 25.1786 
*END

*D_NET *138 0.000570099
*CONN
*I *1907:B2 I *D OAI21_X1
*I *2135:A2 I *D NAND2_X1
*I *1458:Q O *D DFF_X1
*CAP
1 *1907:B2 4.53509e-05
2 *2135:A2 5.12111e-06
3 *1458:Q 4.83255e-05
4 *138:12 9.87975e-05
5 *1907:B2 *1828:B2 1.29947e-05
6 *1907:B2 *2128:A1 8.16741e-05
7 *1907:B2 *2128:A2 0.000105041
8 *1907:B2 *2136:B2 1.66988e-05
9 *1907:B2 *922:18 3.39527e-06
10 *1907:B2 *922:22 2.91785e-06
11 *1907:B2 *922:24 8.06325e-05
12 *1907:B2 *998:12 2.01055e-05
13 *2135:A2 *2136:B2 1.72405e-05
14 *2135:A2 *922:18 3.48838e-06
15 *138:12 *2136:A 1.221e-06
16 *138:12 *2136:B2 2.39679e-06
17 *138:12 *403:59 2.3358e-05
18 *138:12 *403:74 1.03048e-06
19 *138:12 *403:76 3.09525e-07
20 *138:12 *1311:47 0
*RES
1 *1458:Q *138:12 14.9286 
2 *138:12 *2135:A2 10.9286 
3 *138:12 *1907:B2 20.4286 
*END

*D_NET *139 0.000178437
*CONN
*I *2133:A2 I *D NAND2_X1
*I *1867:A2 I *D NOR2_X1
*I *1459:Q O *D DFF_X1
*CAP
1 *2133:A2 0
2 *1867:A2 7.84411e-05
3 *1459:Q 8.71307e-06
4 *139:6 8.71541e-05
5 *1867:A2 *1451:CK 0
6 *1867:A2 *2134:A2 4.12911e-06
7 *139:6 *595:98 0
*RES
1 *1459:Q *139:6 5.92857 
2 *139:6 *1867:A2 23.3929 
3 *139:6 *2133:A2 5 
*END

*D_NET *140 1.74261e-05
*CONN
*I *1856:A I *D INV_X1
*I *1460:Q O *D DFF_X1
*CAP
1 *1856:A 8.71307e-06
2 *1460:Q 8.71307e-06
*RES
1 *1460:Q *1856:A 10.9286 
*END

*D_NET *141 0.000520638
*CONN
*I *1828:B2 I *D OAI21_X1
*I *2128:A2 I *D NAND2_X1
*I *1461:Q O *D DFF_X1
*CAP
1 *1828:B2 1.91551e-05
2 *2128:A2 2.75161e-05
3 *1461:Q 3.74547e-05
4 *141:8 8.4126e-05
5 *1828:B2 *1907:A 2.39679e-06
6 *1828:B2 *1907:B1 2.94435e-05
7 *1828:B2 *593:126 8.43215e-07
8 *1828:B2 *593:135 1.68643e-06
9 *1828:B2 *922:24 8.34049e-06
10 *1828:B2 *998:12 6.86795e-05
11 *2128:A2 *2128:A1 8.43215e-07
12 *2128:A2 *2129:A 7.72792e-06
13 *2128:A2 *998:12 0.000105291
14 *2128:A2 *1311:53 4.32144e-07
15 *141:8 *1911:A1 0
16 *141:8 *1911:B2 2.78902e-06
17 *141:8 *391:68 0
18 *141:8 *1303:769 5.87765e-06
19 *1907:B2 *1828:B2 1.29947e-05
20 *1907:B2 *2128:A2 0.000105041
*RES
1 *1461:Q *141:8 13.75 
2 *141:8 *2128:A2 16.4286 
3 *141:8 *1828:B2 14.3929 
*END

*D_NET *142 0.000504202
*CONN
*I *1787:A2 I *D NOR2_X1
*I *2127:A I *D MUX2_X1
*I *1462:Q O *D DFF_X1
*CAP
1 *1787:A2 0
2 *2127:A 3.89521e-05
3 *1462:Q 5.11637e-05
4 *142:12 9.01158e-05
5 *2127:A *1788:A2 8.19658e-05
6 *2127:A *1788:B1 7.54779e-05
7 *2127:A *2127:S 5.59765e-05
8 *2127:A *389:23 3.2526e-05
9 *2127:A *401:12 1.2453e-05
10 *2127:A *845:181 2.3767e-06
11 *142:12 *1785:A 1.28122e-06
12 *142:12 *389:23 3.21555e-05
13 *142:12 *837:80 8.43215e-07
14 *142:12 *837:97 2.03226e-05
15 *142:12 *1306:135 8.59171e-06
*RES
1 *1462:Q *142:12 21.5357 
2 *142:12 *2127:A 24.0714 
3 *142:12 *1787:A2 5 
*END

*D_NET *143 0.000594602
*CONN
*I *1775:B2 I *D OAI21_X1
*I *2125:A2 I *D NAND2_X1
*I *1463:Q O *D DFF_X1
*CAP
1 *1775:B2 4.88691e-05
2 *2125:A2 8.11065e-05
3 *1463:Q 0
4 *143:4 0.000129976
5 *1775:B2 *593:78 0.000109604
6 *1775:B2 *880:16 6.30459e-06
7 *1775:B2 *1303:348 0
8 *1775:B2 *1303:352 5.64624e-05
9 *2125:A2 *1777:B1 5.38618e-06
10 *2125:A2 *2126:A2 1.10989e-05
11 *2125:A2 *391:28 1.33526e-05
12 *2125:A2 *1298:97 0.000132442
13 *2125:A2 *1303:348 0
*RES
1 *1463:Q *143:4 5 
2 *143:4 *2125:A2 26.2857 
3 *143:4 *1775:B2 24.4643 
*END

*D_NET *144 0.000275165
*CONN
*I *2256:A2 I *D NOR2_X1
*I *2343:A2 I *D NAND2_X1
*I *1464:Q O *D DFF_X1
*CAP
1 *2256:A2 5.58817e-05
2 *2343:A2 6.15056e-05
3 *1464:Q 0
4 *144:6 0.000117387
5 *2256:A2 *2256:A1 3.65322e-06
6 *2256:A2 *986:8 4.81344e-06
7 *2256:A2 *1303:331 1.32323e-05
8 *2343:A2 *2343:A1 8.43215e-07
9 *2343:A2 *2344:A2 0
10 *2343:A2 *401:59 7.87454e-06
11 *2343:A2 *595:76 6.91187e-06
12 *2343:A2 *986:8 3.06181e-06
*RES
1 *1464:Q *144:6 10 
2 *144:6 *2343:A2 16.7143 
3 *144:6 *2256:A2 16.25 
*END

*D_NET *145 0.00193197
*CONN
*I *1329:D I *D DFF_X1
*I *1938:ZN O *D NAND4_X1
*CAP
1 *1329:D 5.51493e-05
2 *1938:ZN 0
3 *145:8 0.000837126
4 *145:6 0.000781976
5 *1329:D *1369:D 0
6 *1329:D *450:63 1.69081e-05
7 *1329:D *1319:78 2.56379e-05
8 *145:8 *1361:D 5.62244e-05
9 *145:8 *1920:A1 2.40658e-05
10 *145:8 *1921:B1 1.32376e-05
11 *145:8 *1924:A1 0
12 *145:8 *1938:A2 9.31406e-05
13 *145:8 *598:306 5.70378e-06
14 *145:8 *1021:8 0
15 *145:8 *1303:547 7.82527e-06
16 *145:8 *1319:82 6.50581e-06
17 *1920:A2 *145:8 2.94407e-06
18 *1922:B2 *145:8 4.65264e-06
19 *2195:A2 *145:8 8.72084e-07
*RES
1 *1938:ZN *145:6 10 
2 *145:6 *145:8 88.4643 
3 *145:8 *1329:D 17.25 
*END

*D_NET *146 0.00115548
*CONN
*I *1330:D I *D DFF_X1
*I *1913:ZN O *D NAND4_X1
*CAP
1 *1330:D 0
2 *1913:ZN 2.63929e-05
3 *146:12 0.000418818
4 *146:10 0.000445211
5 *146:10 *922:24 1.13134e-05
6 *146:12 *1330:CK 2.0121e-05
7 *146:12 *1418:CK 1.74934e-05
8 *146:12 *1903:B1 0.000150839
9 *146:12 *2042:B1 0
10 *146:12 *2042:B2 0
11 *146:12 *1317:41 0
12 *146:12 *1317:80 0
13 *146:12 *1317:95 6.52927e-05
*RES
1 *1913:ZN *146:10 17.9643 
2 *146:10 *146:12 48.75 
3 *146:12 *1330:D 5 
*END

*D_NET *147 0.00284192
*CONN
*I *1331:D I *D DFF_X1
*I *1888:ZN O *D NAND4_X1
*CAP
1 *1331:D 7.43606e-06
2 *1888:ZN 0.000279587
3 *147:10 0.000656652
4 *147:8 0.000928803
5 *1331:D *1331:CK 1.40196e-06
6 *147:8 *1447:CK 0
7 *147:8 *1888:A1 0.000232776
8 *147:8 *378:74 2.29935e-05
9 *147:8 *853:59 0
10 *147:8 *853:74 0
11 *147:8 *1102:20 0
12 *147:10 *461:8 4.52546e-05
13 *147:10 *461:67 1.07633e-05
14 *147:10 *1292:196 0.000656257
*RES
1 *1888:ZN *147:8 43.75 
2 *147:8 *147:10 81.6786 
3 *147:10 *1331:D 10.75 
*END

*D_NET *148 0.00274566
*CONN
*I *1332:D I *D DFF_X1
*I *1863:ZN O *D NAND4_X1
*CAP
1 *1332:D 1.16802e-05
2 *1863:ZN 1.32548e-05
3 *148:10 0.000951494
4 *148:8 0.000953069
5 *1332:D *1314:91 2.23415e-06
6 *148:8 *1863:A1 7.72537e-06
7 *148:8 *1863:A2 8.26038e-06
8 *148:8 *1863:A3 3.09143e-06
9 *148:8 *2066:A 0
10 *148:10 *1356:CK 0
11 *148:10 *1880:A1 6.27556e-05
12 *148:10 *1880:A2 1.32167e-05
13 *148:10 *2075:A2 6.32461e-06
14 *148:10 *2076:A1 3.59487e-05
15 *148:10 *2077:A1 0.000171347
16 *148:10 *2077:A2 0.000273433
17 *148:10 *1102:8 0
18 *148:10 *1111:98 3.53389e-05
19 *148:10 *1113:12 1.52648e-05
20 *148:10 *1314:30 1.39839e-05
21 *148:10 *1314:65 2.59872e-05
22 *148:10 *1314:76 2.16425e-05
23 *148:10 *1314:91 1.01672e-05
24 *1877:B2 *148:10 0.000109436
25 *112:12 *148:10 0
*RES
1 *1863:ZN *148:8 11.75 
2 *148:8 *148:10 119.679 
3 *148:10 *1332:D 11.25 
*END

*D_NET *149 0.000792814
*CONN
*I *1333:D I *D DFF_X1
*I *1834:ZN O *D NAND4_X1
*CAP
1 *1333:D 0.000383674
2 *1834:ZN 0.000383674
3 *1333:D *1905:A2 2.36318e-05
4 *1333:D *2041:A1 1.83411e-06
5 *1333:D *2042:B1 0
6 *1333:D *1090:63 0
7 *1333:D *1090:95 0
8 *1902:A2 *1333:D 0
9 *98:8 *1333:D 0
*RES
1 *1834:ZN *1333:D 48.75 
*END

*D_NET *150 0.00396223
*CONN
*I *1334:D I *D DFF_X1
*I *1809:ZN O *D NAND4_X1
*CAP
1 *1334:D 7.78138e-06
2 *1809:ZN 6.06704e-05
3 *150:10 0.00146251
4 *150:8 0.0015154
5 *1334:D *1334:CK 6.38328e-07
6 *150:8 *1789:A1 1.06408e-05
7 *150:8 *1809:A1 2.31008e-05
8 *150:8 *837:360 3.52552e-05
9 *150:10 *1427:CK 0
10 *150:10 *1443:D 0
11 *150:10 *1876:A1 5.39568e-05
12 *150:10 *2057:A1 2.30121e-05
13 *150:10 *2096:A2 1.045e-05
14 *150:10 *837:360 0
15 *150:10 *876:33 0.000637036
16 *150:10 *884:27 0
17 *2057:A2 *150:10 0
18 *107:12 *150:10 0.000120658
19 *123:12 *150:10 1.11502e-06
*RES
1 *1809:ZN *150:8 18.25 
2 *150:8 *150:10 170.572 
3 *150:10 *1334:D 10.75 
*END

*D_NET *151 0.00244138
*CONN
*I *1335:D I *D DFF_X1
*I *1783:ZN O *D NAND4_X1
*CAP
1 *1335:D 0.000142011
2 *1783:ZN 0
3 *151:6 0.00104289
4 *151:4 0.000900879
5 *1335:D *1317:95 0
6 *151:6 *1355:CK 0
7 *151:6 *1434:D 6.12771e-06
8 *151:6 *2079:B1 1.79569e-05
9 *151:6 *2079:B2 8.26038e-06
10 *151:6 *1292:113 0
11 *151:6 *1317:34 7.19036e-06
12 *151:6 *1317:41 0.000241895
13 *151:6 *1317:80 7.41707e-05
14 *151:6 *1317:95 0
*RES
1 *1783:ZN *151:4 5 
2 *151:4 *151:6 97.3929 
3 *151:6 *1335:D 19.5714 
*END

*D_NET *152 0.00257045
*CONN
*I *1336:D I *D DFF_X1
*I *2277:ZN O *D NAND4_X1
*CAP
1 *1336:D 7.91905e-05
2 *2277:ZN 0
3 *152:8 0.000695476
4 *152:6 0.000616285
5 *1336:D *1336:CK 6.38328e-07
6 *1336:D *450:14 0.000114506
7 *152:8 *1392:D 0.000223405
8 *152:8 *1392:CK 4.82275e-05
9 *152:8 *2269:B1 5.85166e-06
10 *152:8 *2335:A1 5.50501e-05
11 *152:8 *2335:A2 8.34049e-06
12 *152:8 *2681:A 6.75352e-05
13 *152:8 *461:92 2.14884e-06
14 *152:8 *1303:421 5.45406e-05
15 *152:8 *1303:434 0.000180802
16 *152:8 *1303:455 9.30171e-05
17 *152:8 *1303:480 0
18 *152:8 *1315:29 0.000277059
19 *152:8 *1315:40 4.83739e-05
*RES
1 *2277:ZN *152:6 10 
2 *152:6 *152:8 83.7143 
3 *152:8 *1336:D 20.75 
*END

*D_NET *153 0.00212657
*CONN
*I *1513:A1 I *D NAND2_X4
*I *2102:A1 I *D NAND2_X1
*I *2378:A1 I *D NAND2_X1
*I *1507:A I *D INV_X2
*I *1525:A1 I *D NOR2_X4
*I *1327:QN O *D DFFR_X1
*CAP
1 *1513:A1 0
2 *2102:A1 8.25654e-05
3 *2378:A1 4.8105e-05
4 *1507:A 0
5 *1525:A1 0.00018136
6 *1327:QN 9.78518e-05
7 *153:45 0.000226818
8 *153:14 0.000306117
9 *153:12 0.000315134
10 *153:10 0.000384376
11 *1525:A1 *1325:RN 4.80114e-06
12 *1525:A1 *2402:A 0
13 *1525:A1 *2404:B 0
14 *1525:A1 *202:12 6.54215e-05
15 *1525:A1 *596:42 0
16 *1525:A1 *625:12 1.97274e-05
17 *1525:A1 *1280:25 0
18 *2102:A1 *1509:A 5.56848e-05
19 *2102:A1 *2026:A1 2.68254e-05
20 *2102:A1 *1281:43 0.000107416
21 *2102:A1 *1282:83 3.02372e-05
22 *2378:A1 *2379:B1 2.26268e-06
23 *2378:A1 *1303:10 7.9958e-06
24 *153:10 *2374:A1 4.77786e-06
25 *153:10 *2379:B2 4.32144e-07
26 *153:10 *154:27 0
27 *153:10 *837:12 0
28 *153:10 *1280:95 0
29 *153:10 *1282:45 6.5197e-05
30 *153:12 *2379:B1 2.02955e-06
31 *153:12 *2379:B2 0
32 *153:12 *1280:78 0
33 *153:12 *1280:95 0
34 *153:14 *2379:B1 8.02249e-06
35 *153:14 *596:42 0
36 *153:14 *625:12 4.12911e-06
37 *153:14 *625:32 2.46481e-05
38 *153:14 *1280:78 0
39 *153:45 *1509:A 9.57492e-07
40 *153:45 *1513:A2 2.83434e-06
41 *153:45 *154:27 5.08448e-05
42 *153:45 *627:8 0
43 *153:45 *1282:45 0
*RES
1 *1327:QN *153:10 21.25 
2 *153:10 *153:12 14.5 
3 *153:12 *153:14 14.5 
4 *153:14 *1525:A1 30.75 
5 *153:14 *1507:A 10 
6 *153:12 *2378:A1 14.75 
7 *153:10 *153:45 20.75 
8 *153:45 *2102:A1 27.4643 
9 *153:45 *1513:A1 5 
*END

*D_NET *154 0.00330191
*CONN
*I *1513:A2 I *D NAND2_X4
*I *2026:A1 I *D NAND2_X1
*I *1525:A2 I *D NOR2_X4
*I *1468:A I *D INV_X2
*I *2380:B I *D XNOR2_X1
*I *1328:QN O *D DFFR_X1
*CAP
1 *1513:A2 7.22161e-06
2 *2026:A1 0.000128759
3 *1525:A2 0
4 *1468:A 0.000107374
5 *2380:B 7.18272e-05
6 *1328:QN 0.000102685
7 *154:31 0.000274273
8 *154:29 0.000295658
9 *154:27 0.000380078
10 *154:8 0.000547369
11 *1468:A *1471:A1 2.39679e-06
12 *1468:A *1471:A2 2.83077e-06
13 *1468:A *1536:B1 6.32461e-06
14 *1468:A *205:10 0.000120639
15 *1468:A *643:8 5.15068e-05
16 *1513:A2 *631:6 1.08381e-05
17 *2026:A1 *1509:A 5.62244e-05
18 *2026:A1 *1749:A1 1.2203e-05
19 *2026:A1 *1773:A1 0
20 *2026:A1 *1781:A1 4.07589e-05
21 *2026:A1 *2026:A2 4.79696e-05
22 *2026:A1 *388:8 5.46411e-05
23 *2026:A1 *627:10 2.22714e-05
24 *2026:A1 *1087:14 1.26514e-05
25 *2026:A1 *1281:43 0.000132611
26 *2380:B *1300:27 1.43238e-06
27 *2380:B *1322:24 6.85774e-07
28 *154:8 *1328:RN 0
29 *154:8 *1735:A 0
30 *154:8 *2377:A2 3.5628e-06
31 *154:8 *2377:A3 1.37673e-05
32 *154:8 *2687:A 0
33 *154:8 *585:6 0
34 *154:8 *1282:8 0
35 *154:8 *1322:24 0
36 *154:27 *1327:D 0
37 *154:27 *1327:RN 0.000107581
38 *154:27 *1943:A 9.62051e-07
39 *154:27 *1950:A 0
40 *154:27 *2374:A3 0
41 *154:27 *2403:B 3.13459e-05
42 *154:27 *585:6 0
43 *154:27 *631:6 2.39679e-06
44 *154:27 *1282:45 0
45 *154:27 *1304:96 0
46 *154:27 *1304:106 0
47 *154:27 *1322:24 0
48 *154:31 *2387:B 0.000106872
49 *154:31 *2389:A 5.01494e-05
50 *154:31 *2404:B 1.66988e-05
51 *154:31 *167:38 0.00018405
52 *154:31 *205:10 2.87881e-05
53 *154:31 *627:10 3.73586e-05
54 *154:31 *1279:10 0.000146647
55 *2102:A1 *2026:A1 2.68254e-05
56 *153:10 *154:27 0
57 *153:45 *1513:A2 2.83434e-06
58 *153:45 *154:27 5.08448e-05
*RES
1 *1328:QN *154:8 15.3571 
2 *154:8 *2380:B 22.5357 
3 *154:8 *154:27 41.4286 
4 *154:27 *154:29 5 
5 *154:29 *154:31 28.75 
6 *154:31 *1468:A 27.7857 
7 *154:31 *1525:A2 10 
8 *154:29 *2026:A1 32.2143 
9 *154:27 *1513:A2 6.25 
*END

*D_NET *155 0.00297303
*CONN
*I *2384:A I *D FA_X1
*I *2418:A I *D HA_X1
*I *1689:B1 I *D OAI21_X1
*I *2385:A I *D FA_X1
*I *1688:ZN O *D INV_X1
*CAP
1 *2384:A 0.000294656
2 *2418:A 0
3 *1689:B1 8.43045e-05
4 *2385:A 0.00011139
5 *1688:ZN 5.20225e-05
6 *155:27 0.000100926
7 *155:12 0.00054867
8 *155:10 0.000767338
9 *1689:B1 *1596:A 2.25089e-06
10 *1689:B1 *1597:A2 2.39679e-06
11 *1689:B1 *1693:A1 2.39679e-06
12 *1689:B1 *1696:A2 1.86809e-06
13 *1689:B1 *2418:B 4.9678e-06
14 *1689:B1 *164:14 4.93363e-06
15 *1689:B1 *219:19 0.000128675
16 *1689:B1 *230:12 1.56183e-05
17 *1689:B1 *712:12 2.30029e-05
18 *2384:A *1686:A1 2.59775e-05
19 *2384:A *1686:A2 2.31997e-05
20 *2384:A *1722:A3 0
21 *2384:A *1723:A2 7.00826e-05
22 *2384:A *1724:A2 0
23 *2384:A *830:10 2.0472e-05
24 *2384:A *1292:10 3.48838e-06
25 *2385:A *1677:A1 0
26 *2385:A *1695:A3 8.41227e-05
27 *2385:A *224:10 0
28 *2385:A *229:12 5.9889e-07
29 *2385:A *803:22 0.000130761
30 *155:10 *1715:A1 0
31 *155:10 *1722:A1 2.92828e-05
32 *155:10 *1722:A2 7.66204e-06
33 *155:12 *1696:B1 1.58921e-05
34 *155:12 *1722:A3 0
35 *155:12 *630:63 4.52612e-06
36 *155:12 *642:93 5.43795e-05
37 *155:12 *652:97 0.000152593
38 *155:12 *803:22 4.21998e-05
39 *155:12 *830:10 3.13512e-06
40 *155:27 *1696:A2 2.51631e-06
41 *1482:A *2385:A 5.11191e-06
42 *2419:A *1689:B1 1.28122e-06
43 *2419:A *155:27 1.28122e-06
44 *2:59 *155:10 6.97394e-05
45 *9:28 *1689:B1 4.57395e-05
46 *10:43 *2385:A 3.35725e-05
*RES
1 *1688:ZN *155:10 17.6786 
2 *155:10 *155:12 54.5357 
3 *155:12 *2385:A 25.9643 
4 *155:12 *155:27 6.75 
5 *155:27 *1689:B1 27.7857 
6 *155:27 *2418:A 5 
7 *155:10 *2384:A 46.1786 
*END

*D_NET *156 0.000465099
*CONN
*I *2384:B I *D FA_X1
*I *1581:A I *D INV_X1
*I *2421:CO O *D HA_X1
*CAP
1 *2384:B 9.82537e-05
2 *1581:A 0
3 *2421:CO 7.3821e-05
4 *156:8 0.000172075
5 *2384:B *1723:A2 0
6 *2384:B *2384:CI 0.000103168
7 *156:8 *1723:A2 0
8 *156:8 *2384:CI 1.77822e-05
9 *2424:A *156:8 0
*RES
1 *2421:CO *156:8 18.3929 
2 *156:8 *1581:A 10 
3 *156:8 *2384:B 22.5357 
*END

*D_NET *157 0.000198519
*CONN
*I *2384:CI I *D FA_X1
*I *1479:ZN O *D INV_X1
*CAP
1 *2384:CI 3.87844e-05
2 *1479:ZN 3.87844e-05
3 *2384:B *2384:CI 0.000103168
4 *156:8 *2384:CI 1.77822e-05
*RES
1 *1479:ZN *2384:CI 26.3571 
*END

*D_NET *158 0.000456961
*CONN
*I *1683:B I *D XNOR2_X1
*I *1496:B2 I *D OAI21_X1
*I *2384:CO O *D FA_X1
*CAP
1 *1683:B 8.00671e-05
2 *1496:B2 0.000109053
3 *2384:CO 1.50803e-05
4 *158:6 0.000204201
5 *1496:B2 *1683:A 3.1962e-06
6 *1496:B2 *1684:B2 8.26038e-06
7 *1496:B2 *613:10 8.43215e-07
8 *1496:B2 *613:19 4.68638e-06
9 *1496:B2 *735:39 1.07429e-05
10 *1496:B2 *735:52 2.08304e-05
11 *158:6 *735:52 0
*RES
1 *2384:CO *158:6 6.60714 
2 *158:6 *1496:B2 18.25 
3 *158:6 *1683:B 16.3929 
*END

*D_NET *159 0.000188296
*CONN
*I *1686:A2 I *D NOR2_X2
*I *2384:S O *D FA_X1
*CAP
1 *1686:A2 8.25484e-05
2 *2384:S 8.25484e-05
3 *1686:A2 *1724:A2 0
4 *2384:A *1686:A2 2.31997e-05
*RES
1 *2384:S *1686:A2 18.75 
*END

*D_NET *160 0.000613771
*CONN
*I *1479:A I *D INV_X1
*I *2424:B I *D HA_X1
*I *1478:ZN O *D AOI21_X1
*CAP
1 *1479:A 7.20774e-05
2 *2424:B 0
3 *1478:ZN 0.000179962
4 *160:8 0.00025204
5 *1479:A *697:20 7.34989e-06
6 *1479:A *735:52 0
7 *1479:A *794:12 0
8 *160:8 *1709:A2 0
9 *160:8 *2421:A 0
10 *160:8 *219:30 0
11 *160:8 *794:12 0
12 *2424:A *1479:A 1.21072e-05
13 *2424:A *160:8 9.0235e-05
*RES
1 *1478:ZN *160:8 30.6072 
2 *160:8 *2424:B 10 
3 *160:8 *1479:A 18.0357 
*END

*D_NET *161 0.000848468
*CONN
*I *2385:CI I *D FA_X1
*I *1598:B1 I *D OAI21_X1
*I *2413:CO O *D HA_X1
*CAP
1 *2385:CI 0.000138576
2 *1598:B1 0.000215613
3 *2413:CO 0.000354189
4 *1598:B1 *1679:A1 4.19164e-05
5 *1598:B1 *2419:B 0
6 *1598:B1 *637:77 2.08304e-05
7 *1598:B1 *644:92 1.6291e-05
8 *1598:B1 *714:10 6.2988e-06
9 *2385:CI *637:77 3.11085e-05
10 *2385:CI *644:92 2.36455e-05
*RES
1 *2413:CO *1598:B1 44.6072 
2 *2413:CO *2385:CI 25.8571 
*END

*D_NET *162 0.00210508
*CONN
*I *1671:B I *D XNOR2_X1
*I *1546:B1 I *D OAI21_X1
*I *2385:CO O *D FA_X1
*CAP
1 *1671:B 0.000108971
2 *1546:B1 0.000323819
3 *2385:CO 0.000149611
4 *162:10 0.0005824
5 *1546:B1 *1546:A 1.32323e-05
6 *1546:B1 *1546:B2 3.83757e-05
7 *1546:B1 *1706:A1 2.70412e-05
8 *1546:B1 *1706:A2 1.19839e-05
9 *1546:B1 *1706:A4 2.31424e-05
10 *1546:B1 *224:16 4.15598e-05
11 *1546:B1 *634:62 6.93528e-05
12 *1671:B *1671:A 3.88456e-06
13 *1671:B *1674:B1 2.52965e-06
14 *1671:B *634:62 7.73241e-06
15 *1671:B *634:72 6.86327e-05
16 *162:10 *1677:A1 8.65398e-05
17 *162:10 *677:73 2.18059e-05
18 *2:16 *162:10 0.000256235
19 *2:29 *162:10 0.000268232
*RES
1 *2385:CO *162:10 43.0714 
2 *162:10 *1546:B1 43.25 
3 *162:10 *1671:B 17.1786 
*END

*D_NET *163 0.000292515
*CONN
*I *1698:B1 I *D OAI21_X1
*I *2385:S O *D FA_X1
*CAP
1 *1698:B1 0.000110423
2 *2385:S 0.000110423
3 *1698:B1 *1691:A2 0
4 *1698:B1 *1695:A3 1.14281e-05
5 *1698:B1 *1695:A4 2.16425e-05
6 *1698:B1 *1698:A 2.39679e-06
7 *1698:B1 *1699:A1 0
8 *1698:B1 *1699:A2 5.92698e-06
9 *1698:B1 *1700:A1 3.28283e-07
10 *1698:B1 *1700:A2 2.25279e-06
11 *1698:B1 *1700:A3 2.07669e-05
12 *1698:B1 *637:85 1.40196e-06
13 *1698:B1 *637:96 7.16188e-07
14 *1481:A *1698:B1 4.80812e-06
15 *2385:B *1698:B1 0
*RES
1 *2385:S *1698:B1 22.7143 
*END

*D_NET *164 0.0014607
*CONN
*I *2418:B I *D HA_X1
*I *2390:A I *D HA_X1
*I *1483:A2 I *D NAND2_X1
*I *2419:B I *D HA_X1
*I *1482:ZN O *D INV_X1
*CAP
1 *2418:B 8.59927e-06
2 *2390:A 0.000134722
3 *1483:A2 1.05547e-05
4 *2419:B 2.54768e-05
5 *1482:ZN 2.8626e-05
6 *164:25 0.00043493
7 *164:14 0.000384056
8 *164:10 0.000106151
9 *1483:A2 *1483:A1 5.52959e-06
10 *1483:A2 *1682:A1 0
11 *2390:A *1484:A1 8.58925e-06
12 *2390:A *2390:B 2.52965e-06
13 *2390:A *171:8 5.54328e-05
14 *2390:A *171:23 3.23901e-05
15 *2390:A *219:19 0
16 *2390:A *221:8 4.32144e-07
17 *2390:A *794:12 0
18 *2419:B *1687:A1 1.65458e-05
19 *2419:B *1689:B2 5.20238e-07
20 *164:10 *1700:A1 7.14654e-06
21 *164:10 *230:12 1.55645e-05
22 *164:10 *652:97 1.90574e-06
23 *164:14 *1597:A2 3.54976e-05
24 *164:14 *1687:A1 1.26998e-05
25 *164:14 *1693:A1 0
26 *164:14 *712:12 2.11411e-05
27 *164:25 *1595:B2 1.3608e-05
28 *164:25 *1597:A1 1.045e-05
29 *164:25 *1598:B2 0
30 *164:25 *1679:A1 0
31 *164:25 *1689:B2 1.87172e-05
32 *164:25 *219:19 0
33 *164:25 *224:31 0
34 *164:25 *224:40 0
35 *164:25 *662:16 4.80378e-06
36 *164:25 *794:12 0
37 *1598:B1 *2419:B 0
38 *1689:B1 *2418:B 4.9678e-06
39 *1689:B1 *164:14 4.93363e-06
40 *2419:A *2418:B 4.12459e-06
41 *2419:A *164:14 3.02349e-05
42 *9:28 *164:10 1.27524e-05
43 *9:43 *2390:A 7.06703e-06
*RES
1 *1482:ZN *164:10 19.3214 
2 *164:10 *164:14 14.25 
3 *164:14 *2419:B 12.9643 
4 *164:14 *164:25 28.75 
5 *164:25 *1483:A2 11.25 
6 *164:25 *2390:A 26.4286 
7 *164:10 *2418:B 6.25 
*END

*D_NET *165 0.00440068
*CONN
*I *1521:A I *D INV_X1
*I *1519:A2 I *D AND2_X2
*I *1707:A2 I *D NAND3_X1
*I *2386:CO O *D HA_X1
*CAP
1 *1521:A 0
2 *1519:A2 0
3 *1707:A2 0.00012172
4 *2386:CO 0.000367091
5 *165:24 0.000975591
6 *165:22 0.000862279
7 *165:16 6.30748e-05
8 *165:10 0.000325764
9 *165:6 0.000638188
10 *1707:A2 *186:8 0
11 *1707:A2 *815:12 3.48838e-06
12 *165:6 *1326:CK 1.62742e-05
13 *165:6 *202:12 9.62001e-06
14 *165:6 *1280:44 0.000317025
15 *165:10 *1537:B1 8.06325e-05
16 *165:10 *636:10 0
17 *165:10 *639:8 1.29947e-05
18 *165:10 *651:10 1.46625e-05
19 *165:10 *720:12 0
20 *165:10 *1297:10 0
21 *165:16 *1519:A1 7.72792e-06
22 *165:16 *1559:A1 3.65322e-06
23 *165:16 *639:8 3.07768e-05
24 *165:16 *677:8 6.19568e-06
25 *165:16 *720:12 0
26 *165:22 *1519:A1 4.32319e-05
27 *165:22 *637:8 3.02372e-05
28 *165:22 *733:14 4.43868e-06
29 *165:24 *1497:A1 0
30 *165:24 *1538:A2 2.56243e-06
31 *165:24 *1573:A1 2.01438e-05
32 *165:24 *1573:A2 0
33 *165:24 *1573:A3 5.02815e-05
34 *165:24 *1579:A2 6.11142e-05
35 *165:24 *1580:A 7.19234e-06
36 *165:24 *1582:A4 4.38826e-05
37 *165:24 *1588:A 0
38 *165:24 *1637:A1 7.72537e-06
39 *165:24 *1637:A2 1.87637e-06
40 *165:24 *1637:A3 2.67151e-05
41 *165:24 *183:12 6.16527e-06
42 *165:24 *677:8 0
43 *165:24 *696:8 6.06867e-06
44 *165:24 *705:14 0
45 *165:24 *705:16 0
46 *2393:A *165:24 0
47 *2394:A *165:24 0
48 *3:66 *1707:A2 0.000232288
49 *7:74 *165:24 0
*RES
1 *2386:CO *165:6 48.75 
2 *165:6 *165:10 36.4643 
3 *165:10 *165:16 11.3571 
4 *165:16 *165:22 12.2857 
5 *165:22 *165:24 90.25 
6 *165:24 *1707:A2 31.5357 
7 *165:16 *1519:A2 5 
8 *165:10 *1521:A 10 
*END

*D_NET *166 0.000237223
*CONN
*I *1944:A I *D MUX2_X1
*I *2386:S O *D HA_X1
*CAP
1 *1944:A 0.00011357
2 *2386:S 0.00011357
3 *1944:A *1326:CK 0
4 *1944:A *1944:B 1.00836e-05
*RES
1 *2386:S *1944:A 21.7857 
*END

*D_NET *167 0.00176086
*CONN
*I *2378:A2 I *D NAND2_X1
*I *2387:B I *D HA_X1
*I *2389:B I *D HA_X1
*I *2404:B I *D HA_X1
*I *2402:B I *D HA_X1
*I *1326:QN O *D DFFR_X2
*CAP
1 *2378:A2 6.19011e-05
2 *2387:B 5.94606e-05
3 *2389:B 6.09993e-06
4 *2404:B 1.07069e-05
5 *2402:B 0
6 *1326:QN 0.000100447
7 *167:38 0.0001013
8 *167:25 0.000211245
9 *167:19 0.000247343
10 *167:8 0.000121091
11 *2378:A2 *1942:B 3.25548e-05
12 *2378:A2 *1944:S 0
13 *2378:A2 *202:12 5.11191e-06
14 *2378:A2 *596:42 7.691e-05
15 *2387:B *1950:A 0
16 *2387:B *627:10 3.92407e-05
17 *2387:B *1303:842 0
18 *2389:B *2653:A 2.52965e-06
19 *2389:B *1303:842 7.19036e-06
20 *2404:B *205:10 1.72405e-05
21 *2404:B *1279:6 1.68643e-06
22 *167:8 *1280:25 8.53753e-05
23 *167:19 *2402:A 8.43215e-07
24 *167:19 *202:12 2.16603e-05
25 *167:19 *596:42 2.00057e-05
26 *167:19 *1280:25 5.50692e-06
27 *167:25 *1942:A 0
28 *167:25 *2402:A 4.21989e-05
29 *167:25 *625:32 0
30 *167:25 *1279:6 7.4515e-05
31 *167:38 *205:10 5.0939e-05
32 *167:38 *627:10 5.01378e-05
33 *1525:A1 *2404:B 0
34 *154:31 *2387:B 0.000106872
35 *154:31 *2404:B 1.66988e-05
36 *154:31 *167:38 0.00018405
*RES
1 *1326:QN *167:8 16.8929 
2 *167:8 *2402:B 5 
3 *167:8 *167:19 8.71429 
4 *167:19 *167:25 28.75 
5 *167:25 *2404:B 11.6786 
6 *167:25 *167:38 9.75 
7 *167:38 *2389:B 10.75 
8 *167:38 *2387:B 18.9286 
9 *167:19 *2378:A2 20.4286 
*END

*D_NET *168 9.10843e-05
*CONN
*I *1950:A I *D INV_X1
*I *2387:CO O *D HA_X1
*CAP
1 *1950:A 3.89248e-05
2 *2387:CO 3.89248e-05
3 *1950:A *1039:10 1.32348e-05
4 *2387:B *1950:A 0
5 *154:27 *1950:A 0
*RES
1 *2387:CO *1950:A 13.75 
*END

*D_NET *169 0.000871178
*CONN
*I *1533:A I *D INV_X1
*I *1524:A2 I *D NAND2_X2
*I *2388:CO O *D HA_X1
*CAP
1 *1533:A 0
2 *1524:A2 4.2725e-05
3 *2388:CO 0.000209196
4 *169:12 0.000251921
5 *1524:A2 *1519:A1 3.97695e-06
6 *1524:A2 *1537:A2 0
7 *1524:A2 *1538:A2 0
8 *169:12 *1537:A2 1.1175e-05
9 *169:12 *2388:A 5.67661e-05
10 *169:12 *2388:B 6.97608e-05
11 *169:12 *597:10 0.000223826
12 *169:12 *628:10 1.83053e-06
*RES
1 *2388:CO *169:12 44.25 
2 *169:12 *1524:A2 10.2143 
3 *169:12 *1533:A 5 
*END

*D_NET *170 6.74468e-05
*CONN
*I *1514:A I *D INV_X1
*I *2389:CO O *D HA_X1
*CAP
1 *1514:A 3.37234e-05
2 *2389:CO 3.37234e-05
3 *1514:A *1039:10 0
4 *1514:A *1303:842 0
*RES
1 *2389:CO *1514:A 13.25 
*END

*D_NET *171 0.000524738
*CONN
*I *2412:B I *D HA_X1
*I *1949:A3 I *D NAND3_X1
*I *2390:B I *D HA_X1
*I *1668:ZN O *D INV_X1
*CAP
1 *2412:B 3.40861e-05
2 *1949:A3 4.84413e-05
3 *2390:B 6.09993e-06
4 *1668:ZN 1.2349e-05
5 *171:23 0.000112278
6 *171:8 4.81998e-05
7 *1949:A3 *1478:B2 1.8578e-05
8 *1949:A3 *1709:A2 1.79373e-05
9 *1949:A3 *1949:A2 3.16205e-05
10 *2390:B *221:8 7.19036e-06
11 *2412:B *2412:A 7.19036e-06
12 *2412:B *221:8 1.60038e-06
13 *2412:B *221:25 9.62051e-07
14 *171:8 *1478:B2 4.24381e-05
15 *171:8 *219:19 0
16 *171:23 *1478:B2 4.18985e-05
17 *171:23 *1949:A2 0
18 *171:23 *221:8 3.51536e-06
19 *171:23 *794:12 0
20 *2390:A *2390:B 2.52965e-06
21 *2390:A *171:8 5.54328e-05
22 *2390:A *171:23 3.23901e-05
*RES
1 *1668:ZN *171:8 12.9643 
2 *171:8 *2390:B 10.75 
3 *171:8 *171:23 9.53572 
4 *171:23 *1949:A3 22.5714 
5 *171:23 *2412:B 8.75 
*END

*D_NET *172 0.000560453
*CONN
*I *1730:B I *D XNOR2_X1
*I *1575:A3 I *D NAND3_X1
*I *2390:CO O *D HA_X1
*CAP
1 *1730:B 0
2 *1575:A3 6.33731e-05
3 *2390:CO 9.56347e-05
4 *172:8 0.000159008
5 *1575:A3 *1575:A2 3.69153e-05
6 *1575:A3 *221:8 0
7 *1575:A3 *224:55 1.581e-05
8 *1575:A3 *692:8 3.88456e-06
9 *1575:A3 *815:12 2.89018e-05
10 *172:8 *221:8 0
11 *172:8 *224:55 9.67365e-05
12 *172:8 *603:64 5.46172e-05
13 *3:66 *1575:A3 5.57182e-06
*RES
1 *2390:CO *172:8 18.6786 
2 *172:8 *1575:A3 23.2857 
3 *172:8 *1730:B 5 
*END

*D_NET *173 0.000230557
*CONN
*I *1478:B2 I *D AOI21_X1
*I *2390:S O *D HA_X1
*CAP
1 *1478:B2 6.38212e-05
2 *2390:S 6.38212e-05
3 *1478:B2 *1709:A2 0
4 *1478:B2 *219:19 0
5 *1478:B2 *794:12 0
6 *1949:A3 *1478:B2 1.8578e-05
7 *171:8 *1478:B2 4.24381e-05
8 *171:23 *1478:B2 4.18985e-05
*RES
1 *2390:S *1478:B2 28.3929 
*END

*D_NET *174 9.77757e-05
*CONN
*I *2391:B I *D HA_X1
*I *2373:ZN O *D AOI21_X1
*CAP
1 *2391:B 3.67098e-05
2 *2373:ZN 3.67098e-05
3 *2391:B *1731:B2 1.11168e-06
4 *2391:B *176:8 1.62377e-05
5 *2391:B *602:16 0
6 *2391:A *2391:B 7.00661e-06
*RES
1 *2373:ZN *2391:B 24.3214 
*END

*D_NET *175 0.000233577
*CONN
*I *1498:A I *D INV_X1
*I *2391:CO O *D HA_X1
*CAP
1 *1498:A 0.000110289
2 *2391:CO 0.000110289
3 *1498:A *183:12 0
4 *1498:A *600:61 0
5 *1498:A *602:16 1.29976e-05
6 *1498:A *740:10 0
*RES
1 *2391:CO *1498:A 30.1071 
*END

*D_NET *176 0.000737047
*CONN
*I *1664:B I *D XOR2_X1
*I *1497:A2 I *D NAND2_X1
*I *1579:A1 I *D NAND2_X1
*I *2391:S O *D HA_X1
*CAP
1 *1664:B 6.25223e-05
2 *1497:A2 0
3 *1579:A1 0
4 *2391:S 0.000212547
5 *176:17 0.000106647
6 *176:8 0.000256671
7 *1664:B *1499:B1 3.01743e-06
8 *1664:B *1589:A2 0
9 *1664:B *1638:A1 1.084e-05
10 *1664:B *1664:A 2.94455e-05
11 *1664:B *735:35 4.77786e-06
12 *176:17 *1499:B1 9.5257e-06
13 *2391:A *176:8 2.48157e-05
14 *2391:B *176:8 1.62377e-05
*RES
1 *2391:S *176:8 32.6429 
2 *176:8 *1579:A1 10 
3 *176:8 *176:17 5 
4 *176:17 *1497:A2 10 
5 *176:17 *1664:B 16.9286 
*END

*D_NET *177 0.000560902
*CONN
*I *1662:B2 I *D AOI21_X1
*I *1582:A2 I *D NAND4_X1
*I *2424:S O *D HA_X1
*CAP
1 *1662:B2 0
2 *1582:A2 8.20516e-05
3 *2424:S 0.000147644
4 *177:14 0.000229696
5 *1582:A2 *1582:A3 7.72537e-06
6 *1582:A2 *1582:A4 5.10904e-05
7 *1582:A2 *1586:A2 4.6837e-06
8 *1582:A2 *1587:A 4.04712e-06
9 *1582:A2 *1588:A 1.21774e-06
10 *1582:A2 *1663:B1 1.37673e-05
11 *1582:A2 *186:23 3.19164e-06
12 *1582:A2 *240:10 0
13 *177:14 *1663:B1 2.75346e-06
14 *177:14 *1684:A 0
15 *177:14 *240:10 5.19939e-06
16 *177:14 *697:20 2.43548e-06
17 *177:14 *794:12 5.39892e-06
*RES
1 *2424:S *177:14 30.1786 
2 *177:14 *1582:A2 15.9286 
3 *177:14 *1662:B2 5 
*END

*D_NET *178 0.00026933
*CONN
*I *2392:B I *D HA_X1
*I *1492:ZN O *D AOI21_X1
*CAP
1 *2392:B 9.41951e-05
2 *1492:ZN 9.41951e-05
3 *2392:B *1492:B1 1.88334e-06
4 *2392:B *1517:A1 1.3388e-05
5 *2392:B *1578:A 1.32323e-05
6 *2392:B *2395:B 1.64551e-05
7 *2392:B *600:46 2.132e-05
8 *2392:B *603:10 1.61451e-06
9 *2392:B *630:22 1.30469e-05
10 *2392:B *775:14 0
11 *2392:B *833:28 0
*RES
1 *1492:ZN *2392:B 31.3929 
*END

*D_NET *179 1.74261e-05
*CONN
*I *1501:A I *D INV_X1
*I *2392:CO O *D HA_X1
*CAP
1 *1501:A 8.71307e-06
2 *2392:CO 8.71307e-06
*RES
1 *2392:CO *1501:A 10.9286 
*END

*D_NET *180 0.001123
*CONN
*I *1500:A I *D OAI21_X1
*I *2288:A1 I *D NAND2_X1
*I *1590:B I *D XOR2_X1
*I *2392:S O *D HA_X1
*CAP
1 *1500:A 5.72932e-05
2 *2288:A1 0
3 *1590:B 6.24617e-05
4 *2392:S 0.000254532
5 *180:12 9.30974e-05
6 *180:10 0.000342461
7 *1500:A *1500:B1 2.75346e-06
8 *1500:A *1503:A1 2.52965e-06
9 *1500:A *1503:A2 3.23723e-07
10 *1500:A *1539:A1 0
11 *1500:A *2292:B2 3.5628e-06
12 *1500:A *618:12 3.76624e-05
13 *1500:A *656:47 0
14 *1590:B *2292:B2 2.16072e-07
15 *1590:B *656:32 0
16 *180:10 *1503:A1 3.02351e-05
17 *180:10 *1504:A 0
18 *180:10 *1573:A1 6.76399e-05
19 *180:10 *2285:A1 0
20 *180:10 *189:8 0
21 *180:10 *189:19 0
22 *180:10 *512:14 1.91667e-07
23 *180:10 *619:8 0.000148783
24 *180:12 *1503:A2 5.11574e-06
25 *180:12 *2292:B2 1.41436e-05
26 *5:92 *180:10 0
*RES
1 *2392:S *180:10 45.1072 
2 *180:10 *180:12 3.75 
3 *180:12 *1590:B 10.6786 
4 *180:12 *2288:A1 5 
5 *180:10 *1500:A 11.75 
*END

*D_NET *181 0.00041026
*CONN
*I *2393:B I *D HA_X1
*I *2383:ZN O *D AOI21_X1
*CAP
1 *2393:B 9.0608e-05
2 *2383:ZN 9.0608e-05
3 *2393:B *740:10 0.000229044
*RES
1 *2383:ZN *2393:B 32.4643 
*END

*D_NET *182 0.000756756
*CONN
*I *1583:A I *D INV_X1
*I *1500:B2 I *D OAI21_X1
*I *2393:CO O *D HA_X1
*CAP
1 *1583:A 1.92297e-05
2 *1500:B2 0.000155613
3 *2393:CO 7.08435e-05
4 *182:10 0.000245686
5 *1500:B2 *1500:B1 7.95965e-05
6 *1500:B2 *656:47 0
7 *1500:B2 *705:14 0
8 *1500:B2 *705:16 0
9 *1583:A *1500:B1 9.08971e-06
10 *1583:A *705:14 0
11 *182:10 *1641:A1 0.000171597
12 *182:10 *740:10 5.10087e-06
*RES
1 *2393:CO *182:10 25.4286 
2 *182:10 *1500:B2 23.25 
3 *182:10 *1583:A 7.25 
*END

*D_NET *183 0.000499473
*CONN
*I *1493:A I *D INV_X1
*I *1579:A2 I *D NAND2_X1
*I *2393:S O *D HA_X1
*CAP
1 *1493:A 0
2 *1579:A2 5.73985e-05
3 *2393:S 0.000106507
4 *183:12 0.000163905
5 *1579:A2 *705:14 0
6 *183:12 *1499:B2 3.09411e-06
7 *183:12 *1637:A1 5.54348e-05
8 *183:12 *1641:A1 1.4293e-06
9 *183:12 *616:8 1.04451e-05
10 *183:12 *705:14 5.47949e-06
11 *183:12 *740:10 2.85006e-05
12 *1498:A *183:12 0
13 *165:24 *1579:A2 6.11142e-05
14 *165:24 *183:12 6.16527e-06
*RES
1 *2393:S *183:12 29.1786 
2 *183:12 *1579:A2 12.3571 
3 *183:12 *1493:A 5 
*END

*D_NET *184 0.000235498
*CONN
*I *2394:B I *D HA_X1
*I *1732:ZN O *D INV_X1
*CAP
1 *2394:B 0.000113759
2 *1732:ZN 0.000113759
3 *2394:B *186:8 7.14654e-06
4 *2394:B *643:35 8.33759e-07
5 *3:66 *2394:B 0
*RES
1 *1732:ZN *2394:B 31.7857 
*END

*D_NET *185 0.000337674
*CONN
*I *1494:A I *D INV_X1
*I *1588:B2 I *D OAI21_X1
*I *2394:CO O *D HA_X1
*CAP
1 *1494:A 3.43282e-05
2 *1588:B2 0
3 *2394:CO 4.44953e-05
4 *185:10 7.88235e-05
5 *1494:A *1497:A1 2.99527e-05
6 *1494:A *1587:A 8.64288e-07
7 *1494:A *186:23 1.5896e-05
8 *185:10 *1588:A 5.48932e-05
9 *185:10 *1588:B1 3.07768e-05
10 *185:10 *1589:A1 1.41373e-05
11 *185:10 *186:8 2.13496e-05
12 *185:10 *186:23 1.21577e-05
*RES
1 *2394:CO *185:10 22.7143 
2 *185:10 *1588:B2 5 
3 *185:10 *1494:A 9.75 
*END

*D_NET *186 0.000410291
*CONN
*I *1495:A I *D INV_X1
*I *1586:A1 I *D NAND2_X1
*I *1582:A3 I *D NAND4_X1
*I *2394:S O *D HA_X1
*CAP
1 *1495:A 0
2 *1586:A1 8.71307e-06
3 *1582:A3 4.08115e-06
4 *2394:S 7.15705e-05
5 *186:23 6.37141e-05
6 *186:8 0.000130653
7 *1582:A3 *1582:A4 7.72537e-06
8 *186:23 *1582:A4 0
9 *186:23 *1586:A2 1.21774e-06
10 *186:23 *1587:A 2.25683e-05
11 *186:23 *1588:A 2.94455e-05
12 *1494:A *186:23 1.5896e-05
13 *1582:A2 *1582:A3 7.72537e-06
14 *1582:A2 *186:23 3.19164e-06
15 *1707:A2 *186:8 0
16 *2394:B *186:8 7.14654e-06
17 *3:66 *186:8 3.13512e-06
18 *185:10 *186:8 2.13496e-05
19 *185:10 *186:23 1.21577e-05
*RES
1 *2394:S *186:8 18.3929 
2 *186:8 *1582:A3 10.75 
3 *186:8 *186:23 12.3929 
4 *186:23 *1586:A1 5.92857 
5 *186:23 *1495:A 5 
*END

*D_NET *187 0.000691884
*CONN
*I *2395:B I *D HA_X1
*I *1578:ZN O *D AOI21_X1
*CAP
1 *2395:B 0.000164382
2 *1578:ZN 0.000164382
3 *2395:B *1517:A1 0
4 *2395:B *2286:A1 1.25189e-05
5 *2395:B *512:14 7.19036e-06
6 *2395:B *514:12 6.46119e-05
7 *2395:B *603:10 1.76665e-06
8 *2395:B *833:28 1.98677e-05
9 *2285:A2 *2395:B 7.19036e-06
10 *2392:A *2395:B 7.35445e-06
11 *2392:B *2395:B 1.64551e-05
12 *5:92 *2395:B 0.000226165
*RES
1 *1578:ZN *2395:B 43.6429 
*END

*D_NET *188 4.28951e-05
*CONN
*I *2291:A I *D INV_X1
*I *2395:CO O *D HA_X1
*CAP
1 *2291:A 2.14476e-05
2 *2395:CO 2.14476e-05
*RES
1 *2395:CO *2291:A 12.2857 
*END

*D_NET *189 0.000611809
*CONN
*I *1504:A I *D INV_X1
*I *2288:A2 I *D NAND2_X1
*I *1503:A2 I *D NAND2_X1
*I *2395:S O *D HA_X1
*CAP
1 *1504:A 1.53205e-05
2 *2288:A2 0
3 *1503:A2 4.10543e-05
4 *2395:S 0.00012556
5 *189:19 2.6389e-05
6 *189:8 0.000177683
7 *1503:A2 *1503:A1 3.09143e-06
8 *1503:A2 *1539:A1 8.43215e-07
9 *1503:A2 *656:32 1.58664e-05
10 *1504:A *1503:A1 2.77917e-07
11 *1504:A *2289:A 2.99872e-05
12 *1504:A *2292:A 3.22858e-06
13 *189:8 *1573:A1 3.42248e-06
14 *189:8 *2292:A 5.41863e-05
15 *189:8 *514:12 2.00103e-05
16 *189:19 *2292:A 1.02238e-05
17 *1500:A *1503:A2 3.23723e-07
18 *5:92 *189:8 7.92247e-05
19 *180:10 *1504:A 0
20 *180:10 *189:8 0
21 *180:10 *189:19 0
22 *180:12 *1503:A2 5.11574e-06
*RES
1 *2395:S *189:8 26.5357 
2 *189:8 *1503:A2 14.75 
3 *189:8 *189:19 1.60714 
4 *189:19 *2288:A2 10 
5 *189:19 *1504:A 12.2857 
*END

*D_NET *190 0.000110507
*CONN
*I *2396:A I *D HA_X1
*I *1948:ZN O *D INV_X1
*CAP
1 *2396:A 5.16585e-05
2 *1948:ZN 5.16585e-05
3 *2396:A *1599:A2 7.19036e-06
4 *2396:A *1659:B1 0
*RES
1 *1948:ZN *2396:A 16.0714 
*END

*D_NET *191 0.00208664
*CONN
*I *2382:B I *D XNOR2_X1
*I *1488:A1 I *D NAND2_X1
*I *2396:B I *D HA_X1
*I *2397:B I *D HA_X1
*I *1486:ZN O *D INV_X1
*CAP
1 *2382:B 3.27104e-05
2 *1488:A1 4.58372e-05
3 *2396:B 5.20799e-05
4 *2397:B 0.000117743
5 *1486:ZN 0.000330895
6 *191:39 0.000208173
7 *191:10 0.000371093
8 *1488:A1 *740:10 0.000147187
9 *2382:B *1576:A1 1.25189e-05
10 *2382:B *2383:B1 2.16072e-07
11 *2382:B *740:10 5.03973e-05
12 *2382:B *833:28 0
13 *2396:B *192:10 6.73878e-05
14 *2396:B *193:8 4.24381e-05
15 *2396:B *193:45 8.84296e-05
16 *2396:B *630:18 2.30029e-05
17 *2396:B *634:55 2.07819e-05
18 *2397:B *1594:B1 0
19 *2397:B *630:18 1.70588e-05
20 *2397:B *634:51 0.000163046
21 *2397:B *634:55 2.25683e-05
22 *2397:B *709:14 2.81475e-05
23 *191:10 *1489:A2 4.52612e-06
24 *191:10 *1492:B1 1.21072e-05
25 *191:10 *2279:A1 1.47955e-05
26 *191:10 *630:22 0.000107243
27 *191:10 *634:51 2.08098e-06
28 *191:39 *1576:A1 2.95424e-05
29 *1576:A2 *191:10 8.41402e-06
30 *5:64 *2396:B 3.02096e-05
31 *5:64 *2397:B 2.23775e-06
32 *5:64 *191:10 9.22221e-06
33 *13:44 *2396:B 8.56664e-06
34 *13:44 *191:10 1.59864e-05
*RES
1 *1486:ZN *191:10 42.3929 
2 *191:10 *2397:B 22.75 
3 *191:10 *2396:B 25.6429 
4 *1486:ZN *191:39 23.75 
5 *191:39 *1488:A1 17.7143 
6 *191:39 *2382:B 14.2143 
*END

*D_NET *192 0.00131552
*CONN
*I *1631:A2 I *D OR2_X1
*I *1626:A2 I *D NAND2_X1
*I *2396:CO O *D HA_X1
*CAP
1 *1631:A2 0
2 *1626:A2 4.00254e-05
3 *2396:CO 0.000116316
4 *192:10 0.000156342
5 *1626:A2 *1631:A1 2.75346e-06
6 *1626:A2 *640:39 3.28688e-05
7 *1626:A2 *647:76 4.80114e-06
8 *1626:A2 *652:48 1.60494e-06
9 *192:10 *193:8 1.75124e-05
10 *192:10 *642:51 0.00026202
11 *2396:B *192:10 6.73878e-05
12 *5:49 *192:10 0.000429371
13 *5:64 *192:10 0.000142532
14 *13:38 *192:10 3.02781e-05
15 *13:44 *192:10 1.17104e-05
*RES
1 *2396:CO *192:10 45.1072 
2 *192:10 *1626:A2 9.75 
3 *192:10 *1631:A2 5 
*END

*D_NET *193 0.00143756
*CONN
*I *1623:A2 I *D NOR2_X1
*I *1622:A2 I *D NAND3_X1
*I *1594:B2 I *D OAI21_X1
*I *1549:A2 I *D NOR2_X1
*I *1599:A1 I *D NOR2_X1
*I *2396:S O *D HA_X1
*CAP
1 *1623:A2 0
2 *1622:A2 1.69758e-05
3 *1594:B2 0
4 *1549:A2 6.08141e-05
5 *1599:A1 0
6 *2396:S 2.22137e-05
7 *193:45 6.84682e-05
8 *193:21 0.00019757
9 *193:12 0.000182363
10 *193:8 0.000119313
11 *1549:A2 *1549:A1 2.75346e-06
12 *1549:A2 *1594:A 4.9387e-05
13 *1549:A2 *235:8 6.6932e-05
14 *1549:A2 *634:51 9.02287e-06
15 *1622:A2 *633:48 5.42262e-05
16 *1622:A2 *648:66 8.37458e-06
17 *1622:A2 *648:78 9.77674e-06
18 *193:12 *1599:A2 5.43144e-05
19 *193:12 *1680:A 2.51631e-06
20 *193:12 *792:16 3.51536e-06
21 *193:21 *1594:B1 2.07669e-05
22 *193:21 *709:14 3.19164e-07
23 *193:21 *715:8 2.27289e-05
24 *193:21 *792:16 2.33842e-05
25 *193:45 *1621:A1 2.75346e-06
26 *193:45 *634:55 4.5256e-05
27 *193:45 *709:14 3.83974e-05
28 *1947:A *193:21 2.1707e-05
29 *2281:A2 *1549:A2 0
30 *2396:B *193:8 4.24381e-05
31 *2396:B *193:45 8.84296e-05
32 *13:44 *193:8 9.29527e-05
33 *13:44 *193:45 9.23817e-05
34 *192:10 *193:8 1.75124e-05
*RES
1 *2396:S *193:8 15 
2 *193:8 *193:12 10.75 
3 *193:12 *1599:A1 5 
4 *193:12 *193:21 17.3571 
5 *193:21 *1549:A2 23.3929 
6 *193:21 *1594:B2 5 
7 *193:8 *193:45 14.75 
8 *193:45 *1622:A2 17.9643 
9 *193:45 *1623:A2 5 
*END

*D_NET *194 0.000292549
*CONN
*I *1552:A2 I *D NAND2_X1
*I *1592:A I *D INV_X1
*I *2397:CO O *D HA_X1
*CAP
1 *1552:A2 2.89211e-05
2 *1592:A 1.77666e-05
3 *2397:CO 2.02709e-05
4 *194:8 6.69587e-05
5 *1552:A2 *1553:A1 4.79033e-06
6 *1552:A2 *677:31 6.35394e-05
7 *1592:A *235:8 0
8 *1592:A *677:31 4.17054e-05
9 *194:8 *1550:B1 3.35822e-05
10 *194:8 *1550:B2 2.39679e-06
11 *194:8 *648:66 1.26173e-05
*RES
1 *2397:CO *194:8 13.25 
2 *194:8 *1592:A 12.2857 
3 *194:8 *1552:A2 14.3214 
*END

*D_NET *195 0.00025204
*CONN
*I *1628:A2 I *D NAND2_X1
*I *1627:A2 I *D OR2_X1
*I *2398:CO O *D HA_X1
*CAP
1 *1628:A2 7.92022e-06
2 *1627:A2 4.39157e-05
3 *2398:CO 1.70439e-05
4 *195:8 6.88799e-05
5 *1627:A2 *1627:A1 2.75346e-06
6 *1627:A2 *637:51 9.73906e-06
7 *2398:A *195:8 3.02351e-05
8 *5:36 *1627:A2 2.52965e-06
9 *5:49 *1628:A2 2.57414e-05
10 *5:49 *195:8 2.96955e-05
11 *13:21 *195:8 6.92245e-06
12 *13:38 *1628:A2 4.88118e-06
13 *13:38 *195:8 1.78252e-06
*RES
1 *2398:CO *195:8 12.9643 
2 *195:8 *1627:A2 14.75 
3 *195:8 *1628:A2 11.6071 
*END

*D_NET *196 9.8738e-05
*CONN
*I *2399:A I *D HA_X1
*I *1946:ZN O *D INV_X1
*CAP
1 *2399:A 3.45556e-05
2 *1946:ZN 3.45556e-05
3 *4:57 *2399:A 2.96269e-05
*RES
1 *1946:ZN *2399:A 24.3214 
*END

*D_NET *197 0.00150339
*CONN
*I *1575:A1 I *D NAND3_X1
*I *2400:B I *D HA_X1
*I *2399:B I *D HA_X1
*I *1488:A2 I *D NAND2_X1
*I *1487:ZN O *D INV_X1
*CAP
1 *1575:A1 0.000202655
2 *2400:B 0
3 *2399:B 8.48069e-05
4 *1488:A2 0.000152982
5 *1487:ZN 0.000152982
6 *197:30 0.000240119
7 *197:24 0.000357967
8 *1488:A2 *2373:B1 7.66675e-07
9 *1488:A2 *605:15 2.98228e-05
10 *1488:A2 *653:43 0
11 *1575:A1 *605:6 1.58933e-05
12 *1575:A1 *653:43 0
13 *1575:A1 *833:22 2.61219e-06
14 *2399:B *1543:A 1.88334e-06
15 *2399:B *1593:A 2.55331e-06
16 *2399:B *630:42 2.37375e-05
17 *2399:B *648:78 0
18 *2399:B *660:23 2.38892e-05
19 *197:30 *1543:A 1.10052e-05
20 *197:30 *200:8 1.34889e-05
21 *197:30 *605:6 5.52959e-06
22 *197:30 *653:43 0
23 *197:30 *664:12 4.935e-06
24 *2372:B *197:30 1.72084e-05
25 *2391:A *1488:A2 8.13216e-05
26 *2400:A *2399:B 8.71773e-06
27 *3:66 *1575:A1 0
28 *12:27 *2399:B 3.01743e-06
29 *12:27 *197:30 6.54951e-05
*RES
1 *1487:ZN *1488:A2 37.8214 
2 *1487:ZN *197:24 5 
3 *197:24 *197:30 24.8214 
4 *197:30 *2399:B 19.9643 
5 *197:30 *2400:B 10 
6 *197:24 *1575:A1 37.3214 
*END

*D_NET *198 0.00120258
*CONN
*I *1654:A2 I *D NAND2_X1
*I *1649:A2 I *D OR2_X1
*I *2399:CO O *D HA_X1
*CAP
1 *1654:A2 5.6349e-05
2 *1649:A2 0
3 *2399:CO 0.00015279
4 *198:14 8.28054e-05
5 *198:12 0.000179246
6 *1654:A2 *1648:A3 4.91493e-06
7 *1654:A2 *1655:A 2.39679e-06
8 *1654:A2 *1656:A 2.3009e-05
9 *1654:A2 *647:76 6.3924e-06
10 *198:12 *1593:A 7.19036e-06
11 *198:12 *1653:A3 9.16405e-05
12 *198:12 *1656:A 1.72084e-05
13 *198:12 *648:78 0.000155318
14 *198:14 *1648:A3 1.61803e-06
15 *198:14 *1656:A 2.56145e-05
16 *198:14 *1657:A2 2.11458e-05
17 *2400:A *198:12 7.19036e-06
18 *4:46 *198:12 0.000216584
19 *4:57 *198:12 0.000129546
20 *4:72 *198:12 1.66988e-05
21 *12:27 *198:12 4.92317e-06
*RES
1 *2399:CO *198:12 47.2143 
2 *198:12 *198:14 3.25 
3 *198:14 *1649:A2 5 
4 *198:14 *1654:A2 11.6786 
*END

*D_NET *199 0.00150295
*CONN
*I *1542:A I *D INV_X1
*I *1659:B2 I *D OAI21_X1
*I *1599:A2 I *D NOR2_X1
*I *1660:B2 I *D AOI21_X1
*I *1645:A2 I *D NAND2_X1
*I *2399:S O *D HA_X1
*CAP
1 *1542:A 4.71628e-05
2 *1659:B2 0
3 *1599:A2 0.000147171
4 *1660:B2 0
5 *1645:A2 7.20394e-05
6 *2399:S 0.000273515
7 *199:16 9.63725e-05
8 *199:14 0.000171504
9 *199:12 0.000226352
10 *1542:A *630:42 1.30183e-05
11 *1542:A *642:76 2.39679e-06
12 *1542:A *648:80 0
13 *1599:A2 *1512:A 0
14 *1599:A2 *1659:A 6.72155e-05
15 *1599:A2 *1659:B1 1.29947e-05
16 *1599:A2 *1660:A 1.72426e-05
17 *1599:A2 *630:14 3.48838e-06
18 *1599:A2 *709:14 0
19 *1599:A2 *751:12 3.6924e-06
20 *1599:A2 *772:14 0
21 *1599:A2 *792:36 0
22 *1645:A2 *1512:A 0
23 *1645:A2 *629:38 4.93896e-05
24 *1645:A2 *751:12 2.0501e-05
25 *1645:A2 *771:14 0.000106874
26 *199:12 *1659:B1 3.55154e-06
27 *199:12 *1660:A 6.48216e-07
28 *199:12 *630:14 0
29 *199:12 *630:42 0
30 *199:16 *1512:A 0
31 *199:16 *1659:B1 3.02372e-05
32 *199:16 *1660:A 4.26902e-05
33 *199:16 *1660:B1 2.96955e-05
34 *199:16 *751:12 3.6924e-06
35 *2396:A *1599:A2 7.19036e-06
36 *193:12 *1599:A2 5.43144e-05
*RES
1 *2399:S *199:12 27.7143 
2 *199:12 *199:14 5 
3 *199:14 *199:16 4.32143 
4 *199:16 *1645:A2 21.1071 
5 *199:16 *1660:B2 10 
6 *199:14 *1599:A2 27.1071 
7 *199:12 *1659:B2 5 
8 *2399:S *1542:A 14.6786 
*END

*D_NET *200 0.00035267
*CONN
*I *1593:A I *D INV_X1
*I *1543:A I *D AOI21_X1
*I *2400:CO O *D HA_X1
*CAP
1 *1593:A 5.60385e-05
2 *1543:A 4.13342e-05
3 *2400:CO 1.63324e-05
4 *200:8 0.000113705
5 *1543:A *1546:A 0
6 *1543:A *1546:B2 1.21774e-06
7 *1543:A *634:62 0
8 *1543:A *660:23 3.96215e-05
9 *1593:A *634:62 6.40152e-06
10 *1593:A *648:78 8.49668e-06
11 *1593:A *660:23 2.55029e-06
12 *200:8 *1546:A 0
13 *200:8 *664:12 6.45596e-06
14 *2399:B *1543:A 1.88334e-06
15 *2399:B *1593:A 2.55331e-06
16 *2400:A *1593:A 2.43946e-05
17 *197:30 *1543:A 1.10052e-05
18 *197:30 *200:8 1.34889e-05
19 *198:12 *1593:A 7.19036e-06
*RES
1 *2400:CO *200:8 12.2857 
2 *200:8 *1543:A 15.3571 
3 *200:8 *1593:A 16.75 
*END

*D_NET *201 0.00017566
*CONN
*I *1655:B1 I *D OAI21_X1
*I *1650:A2 I *D NAND2_X1
*I *2401:CO O *D HA_X1
*CAP
1 *1655:B1 3.99588e-05
2 *1650:A2 1.20528e-05
3 *2401:CO 9.23826e-06
4 *201:8 6.12499e-05
5 *1650:A2 *1648:A3 1.28122e-06
6 *1650:A2 *1655:B2 2.16072e-07
7 *1650:A2 *637:64 8.43215e-07
8 *1655:B1 *1648:A3 1.26998e-05
9 *1655:B1 *1655:A 7.72792e-06
10 *1655:B1 *637:64 9.91569e-06
11 *1655:B1 *637:75 1.27002e-05
12 *1655:B1 *637:77 0
13 *1655:B1 *677:56 0
14 *201:8 *637:64 5.62905e-06
15 *201:8 *677:56 0
16 *1646:A2 *1655:B1 2.14667e-06
17 *4:14 *1650:A2 0
*RES
1 *2401:CO *201:8 10.9286 
2 *201:8 *1650:A2 11.25 
3 *201:8 *1655:B1 14.8929 
*END

*D_NET *202 0.00204694
*CONN
*I *1942:B I *D XNOR2_X1
*I *1473:A I *D INV_X1
*I *1526:A2 I *D NAND2_X2
*I *2402:CO O *D HA_X1
*CAP
1 *1942:B 2.70273e-05
2 *1473:A 0
3 *1526:A2 2.77345e-05
4 *2402:CO 0
5 *202:16 0.000464238
6 *202:14 0.000436503
7 *202:12 0.000304798
8 *202:6 0.000331825
9 *1942:B *1944:S 0
10 *202:12 *1325:RN 0
11 *202:12 *1326:CK 1.45582e-05
12 *202:12 *1944:B 6.92212e-05
13 *202:12 *1944:S 0
14 *202:12 *596:42 8.79186e-06
15 *202:12 *1280:44 0.000221972
16 *202:16 *601:10 0
17 *202:16 *647:14 5.89762e-06
18 *202:16 *647:20 0
19 *1525:A1 *202:12 6.54215e-05
20 *2378:A2 *1942:B 3.25548e-05
21 *2378:A2 *202:12 5.11191e-06
22 *165:6 *202:12 9.62001e-06
23 *167:19 *202:12 2.16603e-05
*RES
1 *2402:CO *202:6 10 
2 *202:6 *202:12 46 
3 *202:12 *202:14 5 
4 *202:14 *202:16 47.0714 
5 *202:16 *1526:A2 12.9643 
6 *202:16 *1473:A 10 
7 *202:6 *1942:B 14.3214 
*END

*D_NET *203 0.000312828
*CONN
*I *1944:B I *D MUX2_X1
*I *2402:S O *D HA_X1
*CAP
1 *1944:B 7.64335e-05
2 *2402:S 7.64335e-05
3 *1944:B *1326:CK 5.48965e-05
4 *1944:B *1944:S 0
5 *1944:B *596:42 2.57598e-05
6 *1944:A *1944:B 1.00836e-05
7 *202:12 *1944:B 6.92212e-05
*RES
1 *2402:S *1944:B 31.6071 
*END

*D_NET *204 0.000488979
*CONN
*I *1986:A I *D INV_X1
*I *2403:CO O *D HA_X1
*CAP
1 *1986:A 0.000129252
2 *2403:CO 0.000129252
3 *1986:A *1406:CK 2.61812e-06
4 *1986:A *1781:A1 8.64266e-05
5 *1986:A *1992:S 6.38328e-07
6 *1986:A *627:10 1.21072e-05
7 *1986:A *884:8 9.26282e-06
8 *1986:A *1074:16 3.2158e-05
9 *1986:A *1304:88 3.76649e-05
10 *1986:A *1304:94 4.95998e-05
*RES
1 *2403:CO *1986:A 40.2857 
*END

*D_NET *205 0.00114857
*CONN
*I *1475:A I *D INV_X1
*I *2404:CO O *D HA_X1
*CAP
1 *1475:A 6.43402e-05
2 *2404:CO 0.000113257
3 *205:10 0.000177597
4 *1475:A *1471:A2 1.1189e-05
5 *1475:A *1536:A 0
6 *205:10 *1536:B1 1.95497e-05
7 *205:10 *627:10 0.000545029
8 *1468:A *205:10 0.000120639
9 *2404:B *205:10 1.72405e-05
10 *154:31 *205:10 2.87881e-05
11 *167:38 *205:10 5.0939e-05
*RES
1 *2404:CO *205:10 43.75 
2 *205:10 *1475:A 11.75 
*END

*D_NET *206 0.000449494
*CONN
*I *2006:A I *D INV_X1
*I *1939:B I *D XNOR2_X1
*I *2405:CO O *D HA_X1
*CAP
1 *2006:A 8.41137e-05
2 *1939:B 9.77497e-05
3 *2405:CO 0
4 *206:4 0.000181863
5 *1939:B *1773:A1 0
6 *1939:B *1941:A1 1.65458e-05
7 *1939:B *596:23 0
8 *1939:B *837:12 0
9 *1939:B *1280:99 0
10 *1939:B *1280:103 6.92212e-05
11 *2006:A *1280:99 0
*RES
1 *2405:CO *206:4 5 
2 *206:4 *1939:B 27.3571 
3 *206:4 *2006:A 13.25 
*END

*D_NET *207 0.000106278
*CONN
*I *2406:A I *D HA_X1
*I *1465:ZN O *D INV_X1
*CAP
1 *2406:A 4.98579e-05
2 *1465:ZN 4.98579e-05
3 *2406:A *210:8 6.56185e-06
4 *1727:A *2406:A 0
*RES
1 *1465:ZN *2406:A 16.0714 
*END

*D_NET *208 0.000340829
*CONN
*I *2406:B I *D HA_X1
*I *2278:A2 I *D NAND2_X1
*I *2407:B I *D HA_X1
*I *1727:ZN O *D INV_X1
*CAP
1 *2406:B 3.49409e-05
2 *2278:A2 4.70263e-05
3 *2407:B 0
4 *1727:ZN 0
5 *208:10 8.16461e-05
6 *208:6 6.95607e-05
7 *2278:A2 *2278:A1 4.9678e-06
8 *2278:A2 *211:12 4.79372e-06
9 *2406:B *507:10 0
10 *2406:B *647:33 0
11 *208:10 *2278:A1 0
12 *208:10 *211:12 1.72191e-05
13 *208:10 *507:10 0
14 *6:16 *208:10 1.21072e-05
15 *6:25 *2406:B 1.02238e-05
16 *6:25 *208:10 3.15734e-05
17 *6:42 *2406:B 2.67697e-05
*RES
1 *1727:ZN *208:6 10 
2 *208:6 *208:10 10.6786 
3 *208:10 *2407:B 5 
4 *208:10 *2278:A2 9.75 
5 *208:6 *2406:B 15 
*END

*D_NET *209 0.000209385
*CONN
*I *1606:A2 I *D NAND2_X1
*I *1605:A2 I *D OR2_X1
*I *2406:CO O *D HA_X1
*CAP
1 *1606:A2 2.28667e-05
2 *1605:A2 5.61453e-05
3 *2406:CO 2.14476e-05
4 *209:6 0.00010046
5 *1605:A2 *1605:A1 2.39679e-06
6 *1605:A2 *1609:A2 6.06867e-06
7 *1605:A2 *647:29 0
*RES
1 *2406:CO *209:6 7.28572 
2 *209:6 *1605:A2 10.75 
3 *209:6 *1606:A2 7.28572 
*END

*D_NET *210 0.00204586
*CONN
*I *1601:A2 I *D OR2_X1
*I *1612:A2 I *D NAND2_X1
*I *1551:A I *D INV_X1
*I *1603:A2 I *D NAND2_X1
*I *1549:A1 I *D NOR2_X1
*I *2300:A2 I *D NOR2_X1
*I *2406:S O *D HA_X1
*CAP
1 *1601:A2 0
2 *1612:A2 1.39074e-05
3 *1551:A 0
4 *1603:A2 0
5 *1549:A1 0.000236761
6 *2300:A2 3.09755e-05
7 *2406:S 0.00017288
8 *210:51 9.01671e-05
9 *210:16 0.000312245
10 *210:12 5.96524e-05
11 *210:10 9.14027e-05
12 *210:8 0.00017288
13 *1549:A1 *1594:A 8.36514e-06
14 *1549:A1 *1600:B1 9.70781e-07
15 *1549:A1 *2300:A1 2.39679e-06
16 *1549:A1 *216:29 4.79358e-06
17 *1549:A1 *634:51 9.36288e-06
18 *1549:A1 *672:22 0.000134158
19 *1549:A1 *710:16 2.29258e-05
20 *1612:A2 *1604:A1 0
21 *2300:A2 *2300:A1 4.93896e-05
22 *2300:A2 *2301:A1 1.86156e-05
23 *2300:A2 *529:12 2.39679e-06
24 *2300:A2 *710:16 8.43215e-07
25 *210:8 *1550:A 0
26 *210:8 *211:12 0
27 *210:8 *507:12 0.000158291
28 *210:8 *716:16 2.52965e-06
29 *210:12 *637:14 5.54348e-05
30 *210:12 *652:37 0
31 *210:12 *716:16 1.63202e-05
32 *210:16 *216:29 1.66988e-05
33 *210:16 *637:14 0.000175664
34 *210:16 *637:16 6.95616e-06
35 *210:16 *716:16 8.1038e-05
36 *210:51 *1604:A1 0
37 *210:51 *1604:A3 2.57172e-05
38 *210:51 *1608:A1 0
39 *210:51 *1608:A2 0
40 *210:51 *1614:A3 9.57492e-07
41 *210:51 *507:12 1.99513e-05
42 *210:51 *637:14 4.18985e-05
43 *210:51 *652:37 0
44 *1549:A2 *1549:A1 2.75346e-06
45 *2406:A *210:8 6.56185e-06
*RES
1 *2406:S *210:8 25.1786 
2 *210:8 *210:10 5 
3 *210:10 *210:12 2.96429 
4 *210:12 *210:16 16.1071 
5 *210:16 *2300:A2 9.75 
6 *210:16 *1549:A1 32.8572 
7 *210:12 *1603:A2 10 
8 *210:10 *210:51 13.9643 
9 *210:51 *1551:A 5 
10 *210:51 *1612:A2 6.60714 
11 *210:8 *1601:A2 5 
*END

*D_NET *211 0.00115308
*CONN
*I *1550:A I *D AOI21_X1
*I *2302:B2 I *D AOI21_X1
*I *2407:CO O *D HA_X1
*CAP
1 *1550:A 0.000386016
2 *2302:B2 6.05738e-05
3 *2407:CO 9.92239e-05
4 *211:12 0.000545814
5 *1550:A *1550:B1 2.39679e-06
6 *1550:A *1550:B2 2.30024e-06
7 *1550:A *1552:A1 0
8 *1550:A *1604:A2 0
9 *1550:A *1604:A3 0
10 *1550:A *2300:A1 0
11 *1550:A *2302:B1 0
12 *1550:A *648:60 0
13 *1550:A *672:22 0
14 *1550:A *677:29 2.90671e-06
15 *1550:A *716:16 0
16 *2302:B2 *2303:A2 6.99525e-06
17 *2302:B2 *642:25 0
18 *211:12 *2278:A1 1.19839e-05
19 *211:12 *2302:A 3.83909e-06
20 *211:12 *507:10 2.38139e-06
21 *2278:A2 *211:12 4.79372e-06
22 *2410:A *211:12 0
23 *7:51 *2302:B2 8.72084e-07
24 *7:66 *2302:B2 5.75945e-06
25 *208:10 *211:12 1.72191e-05
26 *210:8 *1550:A 0
27 *210:8 *211:12 0
*RES
1 *2407:CO *211:12 25.5357 
2 *211:12 *2302:B2 21.3571 
3 *211:12 *1550:A 40.75 
*END

*D_NET *212 0.00045846
*CONN
*I *1616:B1 I *D OAI21_X1
*I *1607:A2 I *D NAND2_X1
*I *2408:CO O *D HA_X1
*CAP
1 *1616:B1 2.61578e-05
2 *1607:A2 1.59741e-05
3 *2408:CO 0.000127587
4 *212:8 0.000169719
5 *1607:A2 *1609:A3 1.77822e-05
6 *1607:A2 *642:12 8.58678e-06
7 *1616:B1 *642:12 1.27512e-05
8 *1616:B1 *644:14 3.02372e-05
9 *212:8 *1607:A1 2.39679e-06
10 *212:8 *1609:A1 2.88615e-06
11 *6:42 *212:8 3.51536e-06
12 *6:52 *212:8 0
13 *7:66 *1607:A2 1.34851e-06
14 *7:66 *1616:B1 1.6777e-06
15 *14:35 *212:8 0
16 *15:53 *212:8 3.78407e-05
*RES
1 *2408:CO *212:8 23.25 
2 *212:8 *1607:A2 12.2857 
3 *212:8 *1616:B1 13.6429 
*END

*D_NET *213 8.34788e-05
*CONN
*I *2409:A I *D HA_X1
*I *1726:ZN O *D INV_X1
*CAP
1 *2409:A 3.84585e-05
2 *1726:ZN 3.84585e-05
3 *2409:A *216:8 6.56185e-06
*RES
1 *1726:ZN *2409:A 14.3214 
*END

*D_NET *214 0.000668283
*CONN
*I *2278:A1 I *D NAND2_X1
*I *2410:B I *D HA_X1
*I *2409:B I *D HA_X1
*I *1728:ZN O *D INV_X1
*CAP
1 *2278:A1 5.14042e-05
2 *2410:B 0
3 *2409:B 7.81356e-05
4 *1728:ZN 0
5 *214:17 0.000131414
6 *214:6 0.000158146
7 *2278:A1 *507:10 1.72405e-05
8 *2278:A1 *647:33 3.99139e-05
9 *2409:B *215:8 2.74429e-05
10 *2409:B *647:33 4.27786e-05
11 *214:17 *647:33 9.38978e-05
12 *2278:A2 *2278:A1 4.9678e-06
13 *6:16 *2278:A1 0
14 *6:16 *2409:B 0
15 *6:16 *214:17 0
16 *15:28 *2409:B 1.0958e-05
17 *208:10 *2278:A1 0
18 *211:12 *2278:A1 1.19839e-05
*RES
1 *1728:ZN *214:6 10 
2 *214:6 *2409:B 21.7857 
3 *214:6 *214:17 12.4643 
4 *214:17 *2410:B 10 
5 *214:17 *2278:A1 17.6071 
*END

*D_NET *215 0.000425985
*CONN
*I *1557:A2 I *D OR2_X1
*I *1558:A2 I *D NAND2_X1
*I *2409:CO O *D HA_X1
*CAP
1 *1557:A2 0
2 *1558:A2 6.62282e-05
3 *2409:CO 6.25093e-05
4 *215:8 0.000128737
5 *1558:A2 *1557:A1 1.8431e-05
6 *1558:A2 *1560:A1 7.16188e-07
7 *1558:A2 *1562:A1 2.39679e-06
8 *1558:A2 *1562:A2 2.73619e-05
9 *2409:B *215:8 2.74429e-05
10 *6:87 *1558:A2 0
11 *15:28 *1558:A2 1.45805e-05
12 *15:28 *215:8 7.75807e-05
*RES
1 *2409:CO *215:8 20.4286 
2 *215:8 *1558:A2 17.9643 
3 *215:8 *1557:A2 10 
*END

*D_NET *216 0.00117326
*CONN
*I *1571:B1 I *D OAI21_X1
*I *1554:A I *D INV_X1
*I *2300:A1 I *D NOR2_X1
*I *1565:A2 I *D NAND2_X1
*I *2409:S O *D HA_X1
*CAP
1 *1571:B1 0
2 *1554:A 0
3 *2300:A1 4.0709e-05
4 *1565:A2 0
5 *2409:S 0.000138769
6 *216:29 0.000227182
7 *216:12 0.000210289
8 *216:8 0.000162585
9 *2300:A1 *2302:B1 1.43388e-05
10 *2300:A1 *529:12 1.76665e-06
11 *216:8 *1571:A 1.26998e-05
12 *216:8 *1571:B2 1.21774e-06
13 *216:8 *1572:A1 0
14 *216:12 *1568:A3 8.35182e-06
15 *216:12 *1571:A 5.64879e-06
16 *216:12 *637:16 2.48069e-05
17 *216:29 *1568:A3 4.0456e-06
18 *216:29 *2305:A2 0
19 *216:29 *2306:B2 0
20 *216:29 *529:12 0
21 *216:29 *637:14 2.77917e-07
22 *216:29 *637:16 0.000198466
23 *216:29 *652:37 0
24 *216:29 *716:16 1.1413e-05
25 *1549:A1 *2300:A1 2.39679e-06
26 *1549:A1 *216:29 4.79358e-06
27 *1550:A *2300:A1 0
28 *1726:A *216:8 7.19036e-06
29 *2300:A2 *2300:A1 4.93896e-05
30 *2409:A *216:8 6.56185e-06
31 *7:38 *216:8 2.36662e-05
32 *210:16 *216:29 1.66988e-05
*RES
1 *2409:S *216:8 19.6786 
2 *216:8 *216:12 8.64286 
3 *216:12 *1565:A2 10 
4 *216:12 *216:29 31.4286 
5 *216:29 *2300:A1 10.6786 
6 *216:29 *1554:A 5 
7 *216:8 *1571:B1 5 
*END

*D_NET *217 0.000101886
*CONN
*I *2302:A I *D AOI21_X1
*I *2410:CO O *D HA_X1
*CAP
1 *2302:A 4.89153e-05
2 *2410:CO 4.89153e-05
3 *2302:A *2302:B1 2.16072e-07
4 *211:12 *2302:A 3.83909e-06
*RES
1 *2410:CO *2302:A 14.8571 
*END

*D_NET *218 0.000283935
*CONN
*I *1569:A2 I *D NAND2_X1
*I *1563:A2 I *D OR2_X1
*I *2411:CO O *D HA_X1
*CAP
1 *1569:A2 5.00013e-05
2 *1563:A2 0
3 *2411:CO 1.32212e-05
4 *218:8 6.32225e-05
5 *1569:A2 *1563:A1 1.71238e-05
6 *1569:A2 *1568:A1 1.16067e-05
7 *1569:A2 *1568:A3 1.42931e-06
8 *1569:A2 *1572:A2 8.11741e-05
9 *1569:A2 *637:32 3.9832e-05
10 *218:8 *1563:A1 6.32461e-06
11 *15:22 *1569:A2 0
12 *15:22 *218:8 0
*RES
1 *2411:CO *218:8 11.6071 
2 *218:8 *1563:A2 10 
3 *218:8 *1569:A2 19.0714 
*END

*D_NET *219 0.00274712
*CONN
*I *2421:A I *D HA_X1
*I *1721:B1 I *D OAI21_X1
*I *2412:A I *D HA_X1
*I *2413:A I *D HA_X1
*I *1720:ZN O *D INV_X1
*CAP
1 *2421:A 7.16631e-05
2 *1721:B1 7.18307e-06
3 *2412:A 7.17197e-06
4 *2413:A 5.42377e-06
5 *1720:ZN 4.04351e-05
6 *219:30 0.00012826
7 *219:19 0.000411766
8 *219:8 0.000401039
9 *1721:B1 *1721:A 2.75346e-06
10 *2413:A *637:77 7.72792e-06
11 *2413:A *677:71 1.40196e-06
12 *2421:A *1719:A1 1.9153e-05
13 *2421:A *1721:A 1.11258e-05
14 *2421:A *2421:B 1.10597e-05
15 *219:19 *1484:A1 2.38077e-06
16 *219:19 *1689:B2 1.86133e-05
17 *219:19 *1706:A4 5.28425e-05
18 *219:19 *1709:A2 8.11762e-05
19 *219:19 *1721:B2 0.000441574
20 *219:30 *1709:A2 0.000127032
21 *219:30 *1721:B2 0.000169224
22 *219:30 *2421:B 5.39412e-06
23 *1478:B2 *219:19 0
24 *1689:B1 *219:19 0.000128675
25 *2390:A *219:19 0
26 *2412:B *2412:A 7.19036e-06
27 *2424:A *1721:B1 1.87637e-06
28 *2424:A *2421:A 0
29 *2:59 *2421:A 0
30 *3:38 *219:19 0.000444526
31 *9:8 *219:8 1.52648e-05
32 *9:17 *219:8 5.39412e-06
33 *9:17 *219:19 2.57598e-05
34 *9:28 *219:19 6.70408e-05
35 *9:43 *219:19 2.69895e-05
36 *160:8 *2421:A 0
37 *160:8 *219:30 0
38 *164:25 *219:19 0
39 *171:8 *219:19 0
*RES
1 *1720:ZN *219:8 15 
2 *219:8 *2413:A 10.75 
3 *219:8 *219:19 62 
4 *219:19 *2412:A 10.75 
5 *219:19 *219:30 10.4286 
6 *219:30 *1721:B1 10.75 
7 *219:30 *2421:A 17.7857 
*END

*D_NET *220 0.000672406
*CONN
*I *1711:B2 I *D OAI22_X1
*I *1715:A2 I *D NAND2_X1
*I *2412:CO O *D HA_X1
*CAP
1 *1711:B2 0
2 *1715:A2 3.48883e-05
3 *2412:CO 0.000204002
4 *220:10 0.000238891
5 *1715:A2 *1711:A2 5.41015e-05
6 *1715:A2 *1718:A2 1.55645e-05
7 *1715:A2 *1718:A3 6.55107e-05
8 *1715:A2 *810:20 1.41532e-05
9 *220:10 *1713:B1 7.72792e-06
10 *220:10 *1722:A1 0
11 *220:10 *1722:A2 0
12 *220:10 *221:25 0
13 *220:10 *630:78 4.32144e-07
14 *220:10 *642:108 3.71341e-05
*RES
1 *2412:CO *220:10 25.1072 
2 *220:10 *1715:A2 21.3571 
3 *220:10 *1711:B2 5 
*END

*D_NET *221 0.00234096
*CONN
*I *1710:A I *D INV_X1
*I *1716:A2 I *D OAI22_X1
*I *1706:A3 I *D NOR4_X1
*I *2412:S O *D HA_X1
*CAP
1 *1710:A 2.13221e-05
2 *1716:A2 4.91593e-05
3 *1706:A3 0.000150012
4 *2412:S 0
5 *221:25 0.000289044
6 *221:8 0.000347783
7 *221:4 0.000416333
8 *1706:A3 *815:12 0.000116001
9 *1710:A *1718:A3 9.44188e-05
10 *1710:A *810:20 2.08287e-05
11 *1716:A2 *1712:A2 7.27769e-05
12 *1716:A2 *1717:A 6.2553e-05
13 *1716:A2 *1718:A3 2.94435e-05
14 *1716:A2 *810:20 2.08098e-06
15 *221:8 *224:55 0
16 *221:25 *1708:A1 6.05817e-05
17 *221:25 *1712:A1 2.39679e-06
18 *221:25 *1712:A2 1.26998e-05
19 *221:25 *1713:B1 0
20 *1575:A3 *221:8 0
21 *1668:A *221:8 4.78746e-06
22 *1708:A2 *221:8 2.24327e-06
23 *1708:A2 *221:25 3.19164e-07
24 *2390:A *221:8 4.32144e-07
25 *2390:B *221:8 7.19036e-06
26 *2412:B *221:8 1.60038e-06
27 *2412:B *221:25 9.62051e-07
28 *3:44 *1706:A3 0.000154763
29 *3:66 *1706:A3 0.000417708
30 *171:23 *221:8 3.51536e-06
31 *172:8 *221:8 0
32 *220:10 *221:25 0
*RES
1 *2412:S *221:4 5 
2 *221:4 *221:8 24.25 
3 *221:8 *1706:A3 40.1072 
4 *221:4 *221:25 27.4286 
5 *221:25 *1716:A2 20.4286 
6 *221:25 *1710:A 15 
*END

*D_NET *222 0.002359
*CONN
*I *1712:A2 I *D NAND2_X1
*I *1716:B2 I *D OAI22_X1
*I *2414:CO O *D HA_X1
*CAP
1 *1712:A2 6.52815e-05
2 *1716:B2 1.22041e-05
3 *2414:CO 0.00017677
4 *222:24 0.000179919
5 *222:22 0.000279203
6 *1712:A2 *1716:A1 6.03486e-06
7 *1712:A2 *1716:B1 1.72426e-05
8 *1712:A2 *1717:A 2.74896e-06
9 *1712:A2 *810:20 9.13412e-05
10 *1716:B2 *1678:A1 0
11 *1716:B2 *1716:B1 7.72792e-06
12 *222:22 *1690:A 4.15369e-06
13 *222:22 *1694:A1 1.03979e-05
14 *222:22 *1695:A2 0.000125976
15 *222:22 *1695:A3 2.14856e-06
16 *222:22 *1695:A4 4.77458e-05
17 *222:22 *1699:A1 1.13395e-05
18 *222:22 *1700:A1 3.65322e-06
19 *222:22 *644:98 6.71335e-06
20 *222:22 *652:88 3.90865e-05
21 *222:22 *810:18 5.62244e-05
22 *222:24 *1678:A3 2.57883e-05
23 *222:24 *1678:A4 4.18985e-05
24 *222:24 *1716:B1 0.000280683
25 *222:24 *644:98 0.000261768
26 *222:24 *810:18 0.000335038
27 *222:24 *810:20 2.2331e-05
28 *1481:A *222:22 2.3222e-05
29 *1690:B2 *222:22 7.72792e-06
30 *1694:A2 *222:22 4.15825e-06
31 *1716:A2 *1712:A2 7.27769e-05
32 *2385:B *222:22 1.58895e-05
33 *2414:A *222:22 4.65522e-06
34 *3:30 *222:22 5.20238e-07
35 *10:43 *222:22 0.000103929
36 *221:25 *1712:A2 1.26998e-05
*RES
1 *2414:CO *222:22 48 
2 *222:22 *222:24 28.75 
3 *222:24 *1716:B2 11.25 
4 *222:24 *1712:A2 23.7143 
*END

*D_NET *223 0.000443813
*CONN
*I *2415:A I *D HA_X1
*I *1681:B2 I *D OAI221_X1
*I *1466:ZN O *D INV_X1
*CAP
1 *2415:A 8.03515e-05
2 *1681:B2 5.42935e-05
3 *1466:ZN 0.000134645
4 *1681:B2 *1679:A1 7.19036e-06
5 *1681:B2 *1721:B2 9.79225e-06
6 *1681:B2 *792:38 2.39679e-06
7 *1681:B2 *792:45 7.88715e-05
8 *2415:A *1682:A1 3.50707e-05
9 *2415:A *630:63 7.72792e-06
10 *2415:A *634:62 0
11 *2415:A *642:93 4.32144e-07
12 *3:42 *1681:B2 3.30412e-05
*RES
1 *1466:ZN *1681:B2 18.75 
2 *1466:ZN *2415:A 19.1786 
*END

*D_NET *224 0.00334702
*CONN
*I *2415:B I *D HA_X1
*I *1730:A I *D XNOR2_X1
*I *1575:A2 I *D NAND3_X1
*I *1483:A1 I *D NAND2_X1
*I *1681:C2 I *D OAI221_X1
*I *2416:B I *D HA_X1
*I *1481:ZN O *D INV_X2
*CAP
1 *2415:B 6.43684e-05
2 *1730:A 0
3 *1575:A2 3.79342e-05
4 *1483:A1 4.32302e-05
5 *1681:C2 0
6 *2416:B 8.88047e-05
7 *1481:ZN 0.000115211
8 *224:55 0.000220794
9 *224:40 0.000290305
10 *224:31 0.00016141
11 *224:16 0.000366971
12 *224:10 0.000360551
13 *1483:A1 *1682:A1 0
14 *1483:A1 *605:6 4.88546e-05
15 *1483:A1 *794:10 3.51536e-06
16 *1575:A2 *603:64 1.19721e-05
17 *1575:A2 *692:8 1.36133e-06
18 *2415:B *1677:A1 5.25505e-05
19 *2415:B *630:63 3.72089e-05
20 *2416:B *1545:A2 6.58954e-05
21 *2416:B *1595:A 8.55469e-05
22 *2416:B *1679:A1 0.000105291
23 *2416:B *1693:A1 2.86475e-06
24 *2416:B *642:76 9.58448e-05
25 *224:10 *1677:A1 0.000102015
26 *224:10 *1696:A1 1.32167e-05
27 *224:10 *1700:A1 2.68294e-05
28 *224:10 *229:12 2.11933e-05
29 *224:10 *630:63 1.49198e-05
30 *224:16 *1706:A4 0.000110416
31 *224:16 *630:46 0
32 *224:16 *662:16 0
33 *224:31 *1679:A1 0.000181005
34 *224:31 *1681:A 1.55619e-05
35 *224:40 *794:12 5.62244e-05
36 *224:55 *603:64 3.30047e-06
37 *224:55 *794:12 0.000313997
38 *1483:A2 *1483:A1 5.52959e-06
39 *1484:A2 *1483:A1 1.91498e-06
40 *1546:B1 *224:16 4.15598e-05
41 *1575:A3 *1575:A2 3.69153e-05
42 *1575:A3 *224:55 1.581e-05
43 *2385:A *224:10 0
44 *2:44 *2415:B 2.02955e-06
45 *3:30 *224:10 2.73619e-05
46 *164:25 *224:31 0
47 *164:25 *224:40 0
48 *172:8 *224:55 9.67365e-05
49 *221:8 *224:55 0
*RES
1 *1481:ZN *224:10 27.25 
2 *224:10 *224:16 31.25 
3 *224:16 *2416:B 25.8571 
4 *224:16 *224:31 12.4643 
5 *224:31 *1681:C2 10 
6 *224:31 *224:40 7.03572 
7 *224:40 *1483:A1 15.75 
8 *224:40 *224:55 32.2857 
9 *224:55 *1575:A2 10.4286 
10 *224:55 *1730:A 5 
11 *224:10 *2415:B 19.75 
*END

*D_NET *225 0.000322758
*CONN
*I *1676:A2 I *D NAND2_X1
*I *1669:B2 I *D OAI22_X1
*I *2415:CO O *D HA_X1
*CAP
1 *1676:A2 0
2 *1669:B2 2.26241e-05
3 *2415:CO 3.99433e-05
4 *225:8 6.25675e-05
5 *1669:B2 *630:78 5.41015e-05
6 *1669:B2 *642:108 9.24246e-06
7 *1669:B2 *647:110 9.20459e-05
8 *1669:B2 *810:18 2.04127e-06
9 *225:8 *1676:A1 2.52965e-06
10 *225:8 *1682:A1 3.76624e-05
*RES
1 *2415:CO *225:8 9.67857 
2 *225:8 *1669:B2 20 
3 *225:8 *1676:A2 5 
*END

*D_NET *226 0.000511716
*CONN
*I *1671:A I *D XNOR2_X1
*I *1674:A2 I *D OAI22_X1
*I *1544:A I *D INV_X1
*I *2415:S O *D HA_X1
*CAP
1 *1671:A 9.05477e-05
2 *1674:A2 0
3 *1544:A 0
4 *2415:S 6.44966e-05
5 *226:17 0.000142382
6 *226:8 0.000116331
7 *1671:A *1670:A1 0
8 *1671:A *1670:A2 0
9 *1671:A *1672:A 9.62051e-07
10 *1671:A *1672:B2 1.82068e-05
11 *1671:A *1673:A1 0
12 *1671:A *1675:A 4.21607e-06
13 *1671:A *634:72 0
14 *226:8 *1677:A1 1.28577e-06
15 *226:8 *634:62 4.7433e-05
16 *226:8 *642:93 0
17 *226:17 *1673:A1 0
18 *226:17 *1674:B1 1.40196e-06
19 *226:17 *1675:A 8.43215e-07
20 *226:17 *1678:A4 2.14504e-06
21 *226:17 *634:62 9.37232e-06
22 *226:17 *642:108 0
23 *1671:B *1671:A 3.88456e-06
24 *1677:A2 *226:8 5.81102e-06
25 *1677:A2 *226:17 2.39679e-06
*RES
1 *2415:S *226:8 12.7143 
2 *226:8 *1544:A 5 
3 *226:8 *226:17 5.67857 
4 *226:17 *1674:A2 5 
5 *226:17 *1671:A 14.8929 
*END

*D_NET *227 0.000428453
*CONN
*I *1595:A I *D AOI21_X1
*I *1543:B2 I *D AOI21_X1
*I *2416:CO O *D HA_X1
*CAP
1 *1595:A 9.45325e-05
2 *1543:B2 2.80286e-05
3 *2416:CO 0.000122561
4 *1543:B2 *1545:A1 3.41146e-05
5 *1543:B2 *630:42 0
6 *1543:B2 *630:46 1.40196e-05
7 *1595:A *1545:A2 7.72792e-06
8 *1595:A *1693:A1 3.14148e-05
9 *1595:A *662:29 2.75346e-06
10 *1646:A2 *1595:A 1.6324e-06
11 *2416:B *1595:A 8.55469e-05
12 *3:44 *1595:A 6.12114e-06
*RES
1 *2416:CO *1543:B2 14.1786 
2 *2416:CO *1595:A 31.8929 
*END

*D_NET *228 0.00114276
*CONN
*I *1674:B2 I *D OAI22_X1
*I *1670:A2 I *D NAND2_X1
*I *2417:CO O *D HA_X1
*CAP
1 *1674:B2 1.85756e-05
2 *1670:A2 8.40479e-05
3 *2417:CO 0.000179955
4 *228:8 0.000282579
5 *1670:A2 *1670:A1 2.82896e-05
6 *1670:A2 *634:72 6.05817e-05
7 *1674:B2 *644:98 3.74027e-05
8 *228:8 *1699:A1 0
9 *228:8 *644:98 0.000426746
10 *1481:A *228:8 2.45782e-05
11 *1671:A *1670:A2 0
12 *2385:B *228:8 0
*RES
1 *2417:CO *228:8 36.0357 
2 *228:8 *1670:A2 20.25 
3 *228:8 *1674:B2 12.2857 
*END

*D_NET *229 0.000366898
*CONN
*I *1692:A2 I *D NAND2_X1
*I *1696:B2 I *D OAI22_X1
*I *2418:CO O *D HA_X1
*CAP
1 *1692:A2 4.83771e-05
2 *1696:B2 0
3 *2418:CO 4.83497e-05
4 *229:12 9.67268e-05
5 *1692:A2 *1696:B1 2.39679e-06
6 *1692:A2 *1699:A1 4.29935e-05
7 *1692:A2 *1700:A1 0
8 *1692:A2 *662:16 0
9 *229:12 *1696:A1 2.89018e-05
10 *229:12 *1696:A2 3.16205e-05
11 *229:12 *1696:B1 7.80562e-06
12 *229:12 *662:16 3.16205e-05
13 *2385:A *229:12 5.9889e-07
14 *2419:A *1692:A2 6.31337e-06
15 *224:10 *229:12 2.11933e-05
*RES
1 *2418:CO *229:12 21.8929 
2 *229:12 *1696:B2 5 
3 *229:12 *1692:A2 10.75 
*END

*D_NET *230 0.00102997
*CONN
*I *1706:A4 I *D NOR4_X1
*I *1596:A I *D INV_X1
*I *2418:S O *D HA_X1
*CAP
1 *1706:A4 0.000203909
2 *1596:A 3.71383e-06
3 *2418:S 6.91784e-05
4 *230:12 0.000276801
5 *1596:A *803:22 1.87369e-06
6 *1706:A4 *1545:A1 1.21774e-06
7 *1706:A4 *1545:A2 2.39218e-05
8 *1706:A4 *1706:A2 1.21774e-06
9 *1706:A4 *630:46 1.53472e-05
10 *230:12 *1696:A2 2.75402e-05
11 *230:12 *652:97 3.20955e-05
12 *230:12 *712:12 4.02502e-06
13 *230:12 *803:22 5.81102e-06
14 *1546:B1 *1706:A4 2.31424e-05
15 *1689:B1 *1596:A 2.25089e-06
16 *1689:B1 *230:12 1.56183e-05
17 *9:28 *1706:A4 0.000143487
18 *164:10 *230:12 1.55645e-05
19 *219:19 *1706:A4 5.28425e-05
20 *224:16 *1706:A4 0.000110416
*RES
1 *2418:S *230:12 24.25 
2 *230:12 *1596:A 5.5 
3 *230:12 *1706:A4 44.6429 
*END

*D_NET *231 0.000174995
*CONN
*I *1595:B2 I *D AOI21_X1
*I *2419:CO O *D HA_X1
*CAP
1 *1595:B2 4.45299e-05
2 *2419:CO 4.45299e-05
3 *1595:B2 *1598:A 2.75346e-06
4 *1595:B2 *1598:B2 3.06036e-05
5 *1595:B2 *1679:A1 5.94167e-07
6 *1595:B2 *1693:A1 3.83757e-05
7 *164:25 *1595:B2 1.3608e-05
*RES
1 *2419:CO *1595:B2 26.0357 
*END

*D_NET *232 0.000242901
*CONN
*I *1697:A2 I *D NAND2_X1
*I *1691:A2 I *D OR2_X1
*I *2420:CO O *D HA_X1
*CAP
1 *1697:A2 0
2 *1691:A2 5.90596e-05
3 *2420:CO 4.57436e-05
4 *232:6 0.000104803
5 *1691:A2 *637:77 0
6 *1691:A2 *637:85 3.09411e-06
7 *1691:A2 *644:92 1.76665e-06
8 *1691:A2 *644:98 2.39679e-06
9 *232:6 *644:92 0
10 *1698:B1 *1691:A2 0
11 *2385:B *1691:A2 2.60367e-05
*RES
1 *2420:CO *232:6 10 
2 *232:6 *1691:A2 11.9286 
3 *232:6 *1697:A2 5 
*END

*D_NET *233 0.000246803
*CONN
*I *2421:B I *D HA_X1
*I *1949:ZN O *D NAND3_X1
*CAP
1 *2421:B 7.61456e-05
2 *1949:ZN 7.61456e-05
3 *2421:B *1719:A1 6.89701e-06
4 *2421:B *1721:A 2.94455e-05
5 *2421:B *1721:B2 2.54776e-05
6 *2421:B *1722:A3 1.62377e-05
7 *2421:B *1723:A2 0
8 *2421:A *2421:B 1.10597e-05
9 *219:30 *2421:B 5.39412e-06
*RES
1 *1949:ZN *2421:B 30.4286 
*END

*D_NET *234 0.000444199
*CONN
*I *1723:A2 I *D OR2_X4
*I *2421:S O *D HA_X1
*CAP
1 *1723:A2 0.000179394
2 *2421:S 0.000179394
3 *1723:A2 *1722:A3 1.34605e-05
4 *2384:A *1723:A2 7.00826e-05
5 *2384:B *1723:A2 0
6 *2421:B *1723:A2 0
7 *2:59 *1723:A2 1.86809e-06
8 *156:8 *1723:A2 0
*RES
1 *2421:S *1723:A2 41.4643 
*END

*D_NET *235 0.00147925
*CONN
*I *2286:A2 I *D NAND3_X1
*I *2422:A I *D HA_X1
*I *2309:A2 I *D OAI22_X1
*I *1480:ZN O *D INV_X1
*CAP
1 *2286:A2 0.000108795
2 *2422:A 7.80175e-06
3 *2309:A2 3.79066e-05
4 *1480:ZN 0
5 *235:8 0.000354706
6 *235:6 0.000417792
7 *2286:A2 *2286:A1 2.16072e-07
8 *2286:A2 *2286:A3 2.39679e-06
9 *2309:A2 *2309:A1 2.39679e-06
10 *2309:A2 *2311:A2 2.24822e-06
11 *2309:A2 *237:8 7.99561e-05
12 *2309:A2 *647:63 7.19036e-06
13 *2422:A *2312:B1 6.48216e-07
14 *2422:A *772:14 2.52965e-06
15 *235:8 *1705:A2 0
16 *235:8 *237:8 5.53343e-05
17 *235:8 *677:31 0
18 *1549:A2 *235:8 6.6932e-05
19 *1577:B *2286:A2 1.68643e-06
20 *1592:A *235:8 0
21 *2285:A2 *2286:A2 0.000313509
22 *2285:A2 *235:8 1.72084e-05
*RES
1 *1480:ZN *235:6 10 
2 *235:6 *235:8 32.8214 
3 *235:8 *2309:A2 15.0714 
4 *235:8 *2422:A 10.75 
5 *235:6 *2286:A2 27.2857 
*END

*D_NET *236 0.00107848
*CONN
*I *2282:A3 I *D NAND3_X1
*I *2422:B I *D HA_X1
*I *2312:B1 I *D OAI21_X1
*I *1947:ZN O *D INV_X1
*CAP
1 *2282:A3 0.000258209
2 *2422:B 0
3 *2312:B1 6.12893e-05
4 *1947:ZN 0.000428297
5 *236:12 0.000231377
6 *2282:A3 *2279:A1 2.39679e-06
7 *2282:A3 *2281:A1 0
8 *2282:A3 *2282:A2 2.39679e-06
9 *2282:A3 *2283:A1 0
10 *2282:A3 *2283:A2 0
11 *2282:A3 *507:12 7.16193e-06
12 *2282:A3 *508:8 0
13 *2282:A3 *630:22 0
14 *2282:A3 *634:51 0
15 *2312:B1 *2312:A 2.39679e-06
16 *2312:B1 *238:8 3.90891e-05
17 *2312:B1 *647:63 8.2465e-06
18 *2312:B1 *772:14 0
19 *236:12 *647:63 1.15036e-05
20 *236:12 *772:14 1.52186e-05
21 *236:12 *792:16 1.02475e-05
22 *2422:A *2312:B1 6.48216e-07
*RES
1 *1947:ZN *236:12 33.1786 
2 *236:12 *2312:B1 12.3571 
3 *236:12 *2422:B 5 
4 *1947:ZN *2282:A3 44.3572 
*END

*D_NET *237 0.00042918
*CONN
*I *2311:A2 I *D NAND2_X1
*I *2309:B2 I *D OAI22_X1
*I *2422:CO O *D HA_X1
*CAP
1 *2311:A2 2.99505e-05
2 *2309:B2 1.38418e-05
3 *2422:CO 6.10646e-05
4 *237:8 0.000104857
5 *2309:B2 *2310:A 1.04365e-05
6 *2311:A2 *2309:A1 2.39679e-06
7 *2311:A2 *642:40 4.95679e-05
8 *2311:A2 *642:51 2.39679e-06
9 *2311:A2 *647:48 8.43215e-07
10 *2311:A2 *647:63 1.47658e-05
11 *237:8 *2310:A 1.52083e-06
12 *2309:A2 *2311:A2 2.24822e-06
13 *2309:A2 *237:8 7.99561e-05
14 *235:8 *237:8 5.53343e-05
*RES
1 *2422:CO *237:8 18.3929 
2 *237:8 *2309:B2 11.6071 
3 *237:8 *2311:A2 14.75 
*END

*D_NET *238 0.000566893
*CONN
*I *1704:A I *D INV_X1
*I *2310:B2 I *D AOI21_X1
*I *2314:B1 I *D OAI21_X1
*I *2422:S O *D HA_X1
*CAP
1 *1704:A 1.59511e-05
2 *2310:B2 0
3 *2314:B1 3.43289e-05
4 *2422:S 2.20774e-05
5 *238:10 8.32268e-05
6 *238:8 8.69263e-05
7 *1704:A *677:31 3.8126e-05
8 *2314:B1 *677:31 3.0203e-05
9 *2314:B1 *677:33 6.83269e-05
10 *238:8 *2312:B2 2.39679e-06
11 *238:8 *647:63 1.96599e-05
12 *238:10 *677:31 0.000126581
13 *2312:B1 *238:8 3.90891e-05
*RES
1 *2422:S *238:8 13.75 
2 *238:8 *238:10 7.03572 
3 *238:10 *2314:B1 15 
4 *238:10 *2310:B2 10 
5 *238:8 *1704:A 12.2857 
*END

*D_NET *239 0.000155534
*CONN
*I *2315:A2 I *D OR2_X1
*I *2316:A2 I *D NAND2_X1
*I *2423:CO O *D HA_X1
*CAP
1 *2315:A2 2.47854e-05
2 *2316:A2 3.7057e-05
3 *2423:CO 0
4 *239:4 6.18424e-05
5 *2315:A2 *637:32 0
6 *2315:A2 *637:51 7.06263e-06
7 *2315:A2 *644:54 2.39679e-06
8 *2316:A2 *637:32 2.75346e-06
9 *2316:A2 *637:51 1.00571e-05
10 *8:18 *2315:A2 0
11 *8:18 *2316:A2 9.57948e-06
*RES
1 *2423:CO *239:4 5 
2 *239:4 *2316:A2 9.75 
3 *239:4 *2315:A2 7.85714 
*END

*D_NET *240 0.000437677
*CONN
*I *1662:A I *D AOI21_X1
*I *1586:A2 I *D NAND2_X1
*I *2424:CO O *D HA_X1
*CAP
1 *1662:A 0
2 *1586:A2 4.63417e-05
3 *2424:CO 8.38702e-05
4 *240:10 0.000130212
5 *1586:A2 *1497:A1 0
6 *1586:A2 *1582:A4 4.95679e-05
7 *1586:A2 *613:10 2.17903e-06
8 *1586:A2 *696:8 0
9 *1586:A2 *697:20 2.39679e-06
10 *1586:A2 *735:39 2.42461e-05
11 *240:10 *1684:A 3.09143e-06
12 *240:10 *1684:B1 4.55949e-09
13 *240:10 *697:20 6.09359e-05
14 *240:10 *735:39 2.37302e-05
15 *1582:A2 *1586:A2 4.6837e-06
16 *1582:A2 *240:10 0
17 *177:14 *240:10 5.19939e-06
18 *186:23 *1586:A2 1.21774e-06
*RES
1 *2424:CO *240:10 15.1071 
2 *240:10 *1586:A2 11.6786 
3 *240:10 *1662:A 5 
*END

*D_NET *241 0.00026242
*CONN
*I *2687:A I *D CLKBUF_X1
*I *1945:ZN O *D INV_X1
*CAP
1 *2687:A 0.000111867
2 *1945:ZN 0.000111867
3 *2687:A *1328:D 7.87454e-06
4 *2687:A *1328:RN 2.27584e-05
5 *2687:A *2381:A 7.72792e-06
6 *2687:A *1300:14 3.23723e-07
7 *154:8 *2687:A 0
*RES
1 *1945:ZN *2687:A 22.5714 
*END

*D_NET *242 8.13587e-05
*CONN
*I *1343:D I *D DFF_X1
*I *1955:ZN O *D NAND2_X1
*CAP
1 *1343:D 2.78812e-05
2 *1955:ZN 2.78812e-05
3 *1343:D *1339:CK 6.38784e-06
4 *1343:D *1955:A2 2.75346e-06
5 *1343:D *1298:33 1.64551e-05
*RES
1 *1955:ZN *1343:D 13.75 
*END

*D_NET *243 6.83641e-05
*CONN
*I *1342:D I *D DFF_X1
*I *1956:Z O *D MUX2_X1
*CAP
1 *1342:D 3.4182e-05
2 *1956:Z 3.4182e-05
*RES
1 *1956:Z *1342:D 13.6429 
*END

*D_NET *244 0.000145194
*CONN
*I *1341:D I *D DFF_X1
*I *1958:ZN O *D OAI21_X1
*CAP
1 *1341:D 7.16396e-05
2 *1958:ZN 7.16396e-05
3 *1341:D *1341:CK 1.91498e-06
4 *1957:A2 *1341:D 0
*RES
1 *1958:ZN *1341:D 17.3929 
*END

*D_NET *245 0.000177178
*CONN
*I *1340:D I *D DFF_X1
*I *1961:ZN O *D OAI21_X1
*CAP
1 *1340:D 7.21903e-05
2 *1961:ZN 7.21903e-05
3 *1340:D *1396:CK 2.39679e-06
4 *1340:D *1040:30 6.87431e-06
5 *1340:D *1297:10 0
6 *1340:D *1304:51 2.35264e-05
*RES
1 *1961:ZN *1340:D 27.3929 
*END

*D_NET *246 0.000148279
*CONN
*I *1339:D I *D DFF_X1
*I *1964:ZN O *D NAND2_X1
*CAP
1 *1339:D 4.26169e-05
2 *1964:ZN 4.26169e-05
3 *1339:D *1964:A2 2.39679e-06
4 *1339:D *1040:51 5.23038e-05
5 *1339:D *1298:14 8.34424e-06
*RES
1 *1964:ZN *1339:D 15.8571 
*END

*D_NET *247 0.000135298
*CONN
*I *1338:D I *D DFF_X1
*I *1966:ZN O *D OAI21_X1
*CAP
1 *1338:D 6.71679e-05
2 *1966:ZN 6.71679e-05
3 *1338:D *811:34 0
4 *1338:D *1309:81 9.62051e-07
*RES
1 *1966:ZN *1338:D 16.7143 
*END

*D_NET *248 0.000278173
*CONN
*I *1337:D I *D DFF_X1
*I *1969:ZN O *D NAND2_X2
*CAP
1 *1337:D 6.75595e-05
2 *1969:ZN 6.75595e-05
3 *1337:D *1337:CK 6.78878e-05
4 *1337:D *1969:A2 3.21529e-05
5 *1337:D *1292:10 2.04476e-05
6 *1337:D *1292:14 2.25658e-05
*RES
1 *1969:ZN *1337:D 29.6071 
*END

*D_NET *249 0.000139222
*CONN
*I *1399:D I *D DFF_X1
*I *1972:ZN O *D NAND2_X1
*CAP
1 *1399:D 4.98002e-05
2 *1972:ZN 4.98002e-05
3 *1399:D *1399:CK 0
4 *1399:D *1040:55 3.96215e-05
*RES
1 *1972:ZN *1399:D 16.0357 
*END

*D_NET *250 0.00014176
*CONN
*I *1398:D I *D DFF_X1
*I *1973:Z O *D MUX2_X1
*CAP
1 *1398:D 2.5089e-05
2 *1973:Z 2.5089e-05
3 *1398:D *636:8 2.52965e-06
4 *1398:D *1297:45 2.06232e-05
5 *1973:A *1398:D 6.84295e-05
*RES
1 *1973:Z *1398:D 24.3929 
*END

*D_NET *251 0.000108441
*CONN
*I *1397:D I *D DFF_X1
*I *1975:ZN O *D OAI21_X1
*CAP
1 *1397:D 4.85379e-05
2 *1975:ZN 4.85379e-05
3 *1397:D *1975:A 1.21774e-06
4 *1397:D *1309:107 2.23871e-06
5 *1974:A2 *1397:D 7.90853e-06
*RES
1 *1975:ZN *1397:D 15.25 
*END

*D_NET *252 0.000137437
*CONN
*I *1396:D I *D DFF_X1
*I *1977:ZN O *D OAI21_X1
*CAP
1 *1396:D 4.71603e-05
2 *1977:ZN 4.71603e-05
3 *1396:D *1396:CK 0
4 *1396:D *1976:A1 1.4827e-05
5 *1396:D *1295:12 2.82896e-05
*RES
1 *1977:ZN *1396:D 15.3571 
*END

*D_NET *253 0.000113209
*CONN
*I *1395:D I *D DFF_X1
*I *1980:ZN O *D NAND2_X1
*CAP
1 *1395:D 4.04759e-05
2 *1980:ZN 4.04759e-05
3 *1395:D *1980:A1 0
4 *1395:D *1980:A2 7.72537e-06
5 *1395:D *633:115 6.38784e-06
6 *1395:D *634:131 1.21774e-06
7 *1395:D *634:146 1.69265e-05
*RES
1 *1980:ZN *1395:D 15.1786 
*END

*D_NET *254 0.000142882
*CONN
*I *1394:D I *D DFF_X1
*I *1982:ZN O *D OAI21_X1
*CAP
1 *1394:D 5.51994e-05
2 *1982:ZN 5.51994e-05
3 *1394:D *1394:CK 5.52959e-06
4 *1394:D *811:34 0
5 *1394:D *1309:92 1.83288e-05
6 *1981:A2 *1394:D 8.62472e-06
*RES
1 *1982:ZN *1394:D 16.8571 
*END

*D_NET *255 0.0001543
*CONN
*I *1393:D I *D DFF_X1
*I *1985:ZN O *D NAND2_X1
*CAP
1 *1393:D 5.64207e-05
2 *1985:ZN 5.64207e-05
3 *1393:D *1337:CK 7.72792e-06
4 *1393:D *1934:A 0
5 *1393:D *1934:B1 0
6 *1393:D *1985:A2 2.80727e-05
7 *1393:D *845:87 5.65801e-06
8 *1393:D *1303:908 0
*RES
1 *1985:ZN *1393:D 16.5357 
*END

*D_NET *256 0.000489783
*CONN
*I *1407:D I *D DFF_X1
*I *1991:ZN O *D NAND2_X1
*CAP
1 *1407:D 9.83863e-05
2 *1991:ZN 9.83863e-05
3 *1407:D *1756:B1 0.000196005
4 *1407:D *1761:A1 8.56664e-06
5 *1407:D *1762:B1 3.55125e-05
6 *1407:D *1991:A2 8.43215e-07
7 *1407:D *633:115 4.55949e-09
8 *1407:D *634:146 7.74711e-06
9 *1407:D *845:87 0
10 *1407:D *1062:82 1.18902e-05
11 *1407:D *1280:370 1.68796e-05
12 *1407:D *1308:37 1.55619e-05
13 *1990:A2 *1407:D 0
*RES
1 *1991:ZN *1407:D 35.7857 
*END

*D_NET *257 0.000147574
*CONN
*I *1406:D I *D DFF_X1
*I *1992:Z O *D MUX2_X1
*CAP
1 *1406:D 6.80899e-05
2 *1992:Z 6.80899e-05
3 *1406:D *1406:CK 6.38328e-07
4 *1406:D *1992:B 4.68749e-06
5 *1406:D *1074:16 6.06867e-06
6 *1406:D *1303:55 0
*RES
1 *1992:Z *1406:D 17.3929 
*END

*D_NET *258 0.000132496
*CONN
*I *1405:D I *D DFF_X1
*I *1994:ZN O *D OAI21_X1
*CAP
1 *1405:D 5.13601e-05
2 *1994:ZN 5.13601e-05
3 *1405:D *1994:B1 2.97759e-05
*RES
1 *1994:ZN *1405:D 16.4286 
*END

*D_NET *259 0.000140836
*CONN
*I *1404:D I *D DFF_X1
*I *1997:ZN O *D OAI21_X1
*CAP
1 *1404:D 5.05545e-05
2 *1997:ZN 5.05545e-05
3 *1404:D *1404:CK 6.38328e-07
4 *1404:D *845:46 3.90891e-05
*RES
1 *1997:ZN *1404:D 16.0357 
*END

*D_NET *260 0.000135498
*CONN
*I *1403:D I *D DFF_X1
*I *2000:ZN O *D NAND2_X1
*CAP
1 *1403:D 6.63724e-05
2 *2000:ZN 6.63724e-05
3 *1403:D *1403:CK 2.75346e-06
4 *1403:D *1883:B1 0
5 *1403:D *1064:21 0
6 *83:8 *1403:D 0
*RES
1 *2000:ZN *1403:D 16.5357 
*END

*D_NET *261 0.000212471
*CONN
*I *1402:D I *D DFF_X1
*I *2002:ZN O *D OAI21_X1
*CAP
1 *1402:D 7.72111e-05
2 *2002:ZN 7.72111e-05
3 *1402:D *1994:B1 2.08098e-06
4 *1402:D *756:20 3.85541e-05
5 *1402:D *1303:929 0
6 *1896:B2 *1402:D 1.52083e-06
7 *2001:A2 *1402:D 1.58933e-05
*RES
1 *2002:ZN *1402:D 28.75 
*END

*D_NET *262 0.000279646
*CONN
*I *1401:D I *D DFF_X1
*I *2005:ZN O *D NAND2_X2
*CAP
1 *1401:D 0.000116733
2 *2005:ZN 0.000116733
3 *1401:D *2005:A1 0
4 *1401:D *2005:A2 2.23871e-06
5 *1401:D *1064:35 1.18232e-06
6 *1401:D *1064:41 4.2758e-05
7 *2004:A2 *1401:D 0
8 *81:12 *1401:D 0
*RES
1 *2005:ZN *1401:D 23.0357 
*END

*D_NET *263 0.000422694
*CONN
*I *1415:D I *D DFF_X1
*I *2011:ZN O *D NAND2_X1
*CAP
1 *1415:D 8.23178e-05
2 *2011:ZN 8.23178e-05
3 *1415:D *1411:CK 7.98539e-05
4 *1415:D *2010:A1 2.94455e-05
5 *1415:D *1280:385 1.88334e-06
6 *1415:D *1308:14 9.14404e-05
7 *1415:D *1308:20 5.54348e-05
*RES
1 *2011:ZN *1415:D 31.7857 
*END

*D_NET *264 0.000386917
*CONN
*I *1414:D I *D DFF_X1
*I *2012:Z O *D MUX2_X1
*CAP
1 *1414:D 7.98649e-05
2 *2012:Z 7.98649e-05
3 *1414:D *1414:CK 1.89995e-05
4 *1414:D *632:19 0
5 *1414:D *636:52 9.3108e-05
6 *1414:D *837:55 2.40616e-05
7 *1414:D *1075:14 3.42186e-05
8 *1414:D *1075:27 4.24381e-05
9 *1414:D *1297:53 8.61962e-06
10 *1414:D *1297:64 5.7416e-06
*RES
1 *2012:Z *1414:D 33.1429 
*END

*D_NET *265 0.000125165
*CONN
*I *1413:D I *D DFF_X1
*I *2014:ZN O *D OAI21_X1
*CAP
1 *1413:D 5.80194e-05
2 *2014:ZN 5.80194e-05
3 *1413:D *2014:A 1.21774e-06
4 *93:8 *1413:D 7.90853e-06
*RES
1 *2014:ZN *1413:D 16.1786 
*END

*D_NET *266 0.000242153
*CONN
*I *1412:D I *D DFF_X1
*I *2017:ZN O *D OAI21_X1
*CAP
1 *1412:D 8.34064e-05
2 *2017:ZN 8.34064e-05
3 *1412:D *1412:CK 5.54348e-05
4 *1412:D *2274:A1 0
5 *1412:D *837:423 0
6 *1412:D *1295:100 0
7 *1845:A2 *1412:D 1.36926e-05
8 *2016:A *1412:D 6.21255e-06
*RES
1 *2017:ZN *1412:D 29.75 
*END

*D_NET *267 0.000203586
*CONN
*I *1411:D I *D DFF_X1
*I *2020:ZN O *D NAND2_X1
*CAP
1 *1411:D 9.64206e-05
2 *2020:ZN 9.64206e-05
3 *1411:D *1887:A1 0
4 *1411:D *636:87 0
5 *1411:D *1077:36 1.59582e-06
6 *1882:A2 *1411:D 0
7 *91:10 *1411:D 9.14865e-06
*RES
1 *2020:ZN *1411:D 29.6071 
*END

*D_NET *268 0.000240145
*CONN
*I *1410:D I *D DFF_X1
*I *2022:ZN O *D OAI21_X1
*CAP
1 *1410:D 7.97509e-05
2 *2022:ZN 7.97509e-05
3 *1410:D *756:54 6.39737e-05
4 *1410:D *1077:76 1.66698e-05
5 *1819:A2 *1410:D 0
*RES
1 *2022:ZN *1410:D 29.75 
*END

*D_NET *269 0.000125047
*CONN
*I *1409:D I *D DFF_X1
*I *2025:ZN O *D NAND2_X2
*CAP
1 *1409:D 5.7152e-05
2 *2025:ZN 5.7152e-05
3 *1409:D *1405:CK 0
4 *1409:D *2025:A1 1.07429e-05
5 *1409:D *1077:62 0
*RES
1 *2025:ZN *1409:D 16.1786 
*END

*D_NET *270 0.000126935
*CONN
*I *1423:D I *D DFF_X1
*I *2031:ZN O *D NAND2_X1
*CAP
1 *1423:D 3.89796e-05
2 *2031:ZN 3.89796e-05
3 *1423:D *1931:A1 8.62472e-06
4 *1423:D *2031:A1 7.29164e-07
5 *1423:D *876:81 3.96215e-05
*RES
1 *2031:ZN *1423:D 15.3571 
*END

*D_NET *271 0.000418974
*CONN
*I *1422:D I *D DFF_X1
*I *2032:Z O *D MUX2_X1
*CAP
1 *1422:D 9.23796e-05
2 *2032:Z 9.23796e-05
3 *1422:D *1799:A 0.000140046
4 *1422:D *1297:149 0
5 *1422:D *1297:153 0
6 *1799:B2 *1422:D 6.3392e-05
7 *102:8 *1422:D 3.07768e-05
*RES
1 *2032:Z *1422:D 33.8929 
*END

*D_NET *272 0.000163067
*CONN
*I *1421:D I *D DFF_X1
*I *2034:ZN O *D OAI21_X1
*CAP
1 *1421:D 5.34626e-05
2 *2034:ZN 5.34626e-05
3 *1421:D *2034:B1 5.61423e-05
*RES
1 *2034:ZN *1421:D 16.8571 
*END

*D_NET *273 8.4732e-05
*CONN
*I *1420:D I *D DFF_X1
*I *2037:ZN O *D OAI21_X1
*CAP
1 *1420:D 3.83956e-05
2 *2037:ZN 3.83956e-05
3 *1420:D *1851:B1 2.03863e-06
4 *1420:D *1280:183 0
5 *1420:D *1303:196 5.05896e-06
6 *1420:D *1312:60 8.43215e-07
*RES
1 *2037:ZN *1420:D 13.75 
*END

*D_NET *274 0.000121462
*CONN
*I *1419:D I *D DFF_X1
*I *2040:ZN O *D NAND2_X1
*CAP
1 *1419:D 4.29587e-05
2 *2040:ZN 4.29587e-05
3 *1419:D *595:16 4.64443e-06
4 *1878:B2 *1419:D 0
5 *2039:A2 *1419:D 6.32202e-06
6 *99:8 *1419:D 2.45782e-05
*RES
1 *2040:ZN *1419:D 25.5714 
*END

*D_NET *275 0.000310143
*CONN
*I *1418:D I *D DFF_X1
*I *2042:ZN O *D OAI21_X1
*CAP
1 *1418:D 6.29008e-05
2 *2042:ZN 6.29008e-05
3 *1418:D *756:103 0.000184342
*RES
1 *2042:ZN *1418:D 29.75 
*END

*D_NET *276 0.00031921
*CONN
*I *1417:D I *D DFF_X1
*I *2045:ZN O *D NAND2_X2
*CAP
1 *1417:D 8.68617e-05
2 *2045:ZN 8.68617e-05
3 *1417:D *2043:A1 9.57492e-07
4 *1417:D *2045:A1 3.35796e-05
5 *1417:D *986:8 0
6 *1417:D *1294:130 0.000106622
7 *1928:B2 *1417:D 0
8 *2044:A2 *1417:D 1.35285e-06
9 *97:8 *1417:D 2.97473e-06
*RES
1 *2045:ZN *1417:D 30.9643 
*END

*D_NET *277 0.000227957
*CONN
*I *1431:D I *D DFF_X1
*I *2050:ZN O *D NAND2_X1
*CAP
1 *1431:D 6.49933e-05
2 *2050:ZN 6.49933e-05
3 *1431:D *593:29 3.96215e-05
4 *1431:D *609:216 3.90891e-05
5 *1765:B2 *1431:D 7.65033e-06
6 *111:12 *1431:D 1.16091e-05
*RES
1 *2050:ZN *1431:D 28.75 
*END

*D_NET *278 0.000294605
*CONN
*I *1430:D I *D DFF_X1
*I *2051:Z O *D MUX2_X1
*CAP
1 *1430:D 0.000106783
2 *2051:Z 0.000106783
3 *1430:D *1100:16 8.10394e-05
*RES
1 *2051:Z *1430:D 33.1429 
*END

*D_NET *279 9.63268e-05
*CONN
*I *1429:D I *D DFF_X1
*I *2053:ZN O *D OAI21_X1
*CAP
1 *1429:D 2.83527e-05
2 *2053:ZN 2.83527e-05
3 *1429:D *2053:B1 3.96215e-05
4 *1429:D *853:85 0
*RES
1 *2053:ZN *1429:D 13.75 
*END

*D_NET *280 0.000142933
*CONN
*I *1428:D I *D DFF_X1
*I *2055:ZN O *D OAI21_X1
*CAP
1 *1428:D 5.77274e-05
2 *2055:ZN 5.77274e-05
3 *1428:D *1428:CK 1.58933e-05
4 *1428:D *2054:A2 3.01743e-06
5 *1428:D *1100:16 8.56789e-06
*RES
1 *2055:ZN *1428:D 26.7143 
*END

*D_NET *281 0.000220958
*CONN
*I *1427:D I *D DFF_X1
*I *2058:ZN O *D NAND2_X1
*CAP
1 *1427:D 1.63102e-05
2 *2058:ZN 1.63102e-05
3 *1427:D *2056:A1 9.41688e-05
4 *1427:D *376:59 9.41688e-05
*RES
1 *2058:ZN *1427:D 25 
*END

*D_NET *282 0.000193584
*CONN
*I *1426:D I *D DFF_X1
*I *2060:ZN O *D OAI21_X1
*CAP
1 *1426:D 7.66758e-05
2 *2060:ZN 7.66758e-05
3 *1426:D *2060:B1 0
4 *1426:D *2060:B2 1.77822e-05
5 *1426:D *1090:63 2.24507e-05
*RES
1 *2060:ZN *1426:D 28.8929 
*END

*D_NET *283 0.000224053
*CONN
*I *1425:D I *D DFF_X1
*I *2063:ZN O *D NAND2_X2
*CAP
1 *1425:D 7.8326e-05
2 *2063:ZN 7.8326e-05
3 *1425:D *2063:A1 1.87369e-06
4 *1425:D *2063:A2 2.75346e-06
5 *1425:D *1088:84 0
6 *1425:D *1113:44 0
7 *1425:D *1298:137 1.88334e-06
8 *1425:D *1298:154 6.0891e-05
*RES
1 *2063:ZN *1425:D 29.8214 
*END

*D_NET *284 7.95248e-05
*CONN
*I *1439:D I *D DFF_X1
*I *2068:ZN O *D NAND2_X1
*CAP
1 *1439:D 3.64157e-05
2 *2068:ZN 3.64157e-05
3 *1439:D *1439:CK 9.62051e-07
4 *1439:D *1783:A1 0
5 *1439:D *2068:A2 4.76917e-06
6 *1439:D *1316:40 9.62051e-07
*RES
1 *2068:ZN *1439:D 13.25 
*END

*D_NET *285 6.83641e-05
*CONN
*I *1438:D I *D DFF_X1
*I *2069:Z O *D MUX2_X1
*CAP
1 *1438:D 3.4182e-05
2 *2069:Z 3.4182e-05
*RES
1 *2069:Z *1438:D 13.6429 
*END

*D_NET *286 0.000154082
*CONN
*I *1437:D I *D DFF_X1
*I *2071:ZN O *D OAI21_X1
*CAP
1 *1437:D 6.27459e-05
2 *2071:ZN 6.27459e-05
3 *1437:D *1437:CK 6.38328e-07
4 *1437:D *2070:A1 0
5 *1437:D *2071:A 7.72537e-06
6 *1437:D *2071:B1 1.76728e-05
7 *1437:D *2071:B2 2.55331e-06
*RES
1 *2071:ZN *1437:D 17.3571 
*END

*D_NET *287 0.00019617
*CONN
*I *1436:D I *D DFF_X1
*I *2074:ZN O *D OAI21_X1
*CAP
1 *1436:D 9.53633e-05
2 *2074:ZN 9.53633e-05
3 *1436:D *2072:A1 2.83077e-06
4 *1436:D *2072:A2 2.16072e-07
5 *1436:D *2074:B2 2.39679e-06
6 *1436:D *1111:27 0
7 *1436:D *1280:158 0
*RES
1 *2074:ZN *1436:D 29.4286 
*END

*D_NET *288 9.53828e-05
*CONN
*I *1435:D I *D DFF_X1
*I *2077:ZN O *D NAND2_X1
*CAP
1 *1435:D 4.76914e-05
2 *2077:ZN 4.76914e-05
3 *1435:D *837:125 0
4 *1435:D *1312:37 0
5 *1435:D *1312:46 0
*RES
1 *2077:ZN *1435:D 14.8929 
*END

*D_NET *289 0.000178054
*CONN
*I *1434:D I *D DFF_X1
*I *2079:ZN O *D OAI21_X1
*CAP
1 *1434:D 8.10885e-05
2 *2079:ZN 8.10885e-05
3 *1434:D *1353:CK 2.90224e-06
4 *1434:D *2079:B2 5.57182e-06
5 *1434:D *1317:19 1.2752e-06
6 *151:6 *1434:D 6.12771e-06
*RES
1 *2079:ZN *1434:D 28.0714 
*END

*D_NET *290 0.000147398
*CONN
*I *1433:D I *D DFF_X1
*I *2082:ZN O *D NAND2_X1
*CAP
1 *1433:D 5.51597e-05
2 *2082:ZN 5.51597e-05
3 *1433:D *1433:CK 2.88181e-05
4 *1433:D *2082:A1 8.26038e-06
5 *2081:A2 *1433:D 0
*RES
1 *2082:ZN *1433:D 16.5357 
*END

*D_NET *291 0.000195889
*CONN
*I *1447:D I *D DFF_X1
*I *2087:ZN O *D NAND2_X1
*CAP
1 *1447:D 9.79443e-05
2 *2087:ZN 9.79443e-05
3 *1447:D *1318:18 0
*RES
1 *2087:ZN *1447:D 29.75 
*END

*D_NET *292 0.000666887
*CONN
*I *1446:D I *D DFF_X1
*I *2088:Z O *D MUX2_X1
*CAP
1 *1446:D 9.02314e-05
2 *2088:Z 9.02314e-05
3 *1446:D *1438:CK 4.65264e-06
4 *1446:D *1088:23 0.000298385
5 *1446:D *1280:122 0.000105291
6 *1446:D *1280:137 6.84316e-05
7 *1446:D *1303:110 4.01666e-06
8 *1446:D *1306:56 3.26648e-06
9 *1446:D *1306:58 2.38077e-06
*RES
1 *2088:Z *1446:D 37.6072 
*END

*D_NET *293 0.000153408
*CONN
*I *1445:D I *D DFF_X1
*I *2090:ZN O *D OAI21_X1
*CAP
1 *1445:D 5.79141e-05
2 *2090:ZN 5.79141e-05
3 *1445:D *1445:CK 3.08174e-05
4 *1445:D *2090:A 2.25089e-06
5 *1445:D *2090:B1 2.61322e-06
6 *2089:A2 *1445:D 1.89851e-06
*RES
1 *2090:ZN *1445:D 16.8571 
*END

*D_NET *294 0.00036957
*CONN
*I *1444:D I *D DFF_X1
*I *2093:ZN O *D OAI21_X1
*CAP
1 *1444:D 9.61063e-05
2 *2093:ZN 9.61063e-05
3 *1444:D *1852:A1 0
4 *1444:D *1854:B2 0
5 *1444:D *2091:A1 0
6 *1444:D *376:27 0
7 *1444:D *376:31 0
8 *1444:D *376:40 0
9 *1444:D *1295:201 0
10 *1444:D *1312:68 0.000115373
11 *1444:D *1312:70 5.62244e-05
12 *1852:A2 *1444:D 0
13 *124:8 *1444:D 5.75996e-06
*RES
1 *2093:ZN *1444:D 32.8214 
*END

*D_NET *295 0.000234765
*CONN
*I *1443:D I *D DFF_X1
*I *2096:ZN O *D NAND2_X1
*CAP
1 *1443:D 8.12491e-05
2 *2096:ZN 8.12491e-05
3 *1443:D *1427:CK 4.29819e-05
4 *1443:D *1443:CK 1.2453e-05
5 *1443:D *2056:A1 0
6 *1443:D *2096:A2 5.94167e-07
7 *123:12 *1443:D 1.62377e-05
8 *150:10 *1443:D 0
*RES
1 *2096:ZN *1443:D 29.75 
*END

*D_NET *296 0.00017247
*CONN
*I *1442:D I *D DFF_X1
*I *2098:ZN O *D OAI21_X1
*CAP
1 *1442:D 7.57488e-05
2 *2098:ZN 7.57488e-05
3 *1442:D *1442:CK 1.34642e-05
4 *2097:A2 *1442:D 7.50823e-06
*RES
1 *2098:ZN *1442:D 28.0714 
*END

*D_NET *297 0.000171634
*CONN
*I *1441:D I *D DFF_X1
*I *2101:ZN O *D NAND2_X1
*CAP
1 *1441:D 6.25915e-05
2 *2101:ZN 6.25915e-05
3 *1441:D *2080:A1 3.51992e-06
4 *1441:D *2101:A2 1.06313e-05
5 *1441:D *609:89 2.39679e-06
6 *1441:D *609:187 1.32348e-05
7 *1441:D *1313:37 4.06582e-06
8 *1441:D *1313:56 1.26019e-05
*RES
1 *2101:ZN *1441:D 17.4643 
*END

*D_NET *298 9.91711e-05
*CONN
*I *1455:D I *D DFF_X1
*I *2107:ZN O *D NAND2_X1
*CAP
1 *1455:D 3.73951e-05
2 *2107:ZN 3.73951e-05
3 *1455:D *1455:CK 3.5108e-06
4 *1455:D *2107:A2 7.72792e-06
5 *1455:D *389:33 3.82997e-06
6 *1455:D *391:28 3.32271e-06
7 *1455:D *1298:107 5.98958e-06
*RES
1 *2107:ZN *1455:D 14.25 
*END

*D_NET *299 0.000381635
*CONN
*I *1454:D I *D DFF_X1
*I *2108:Z O *D MUX2_X1
*CAP
1 *1454:D 8.24352e-05
2 *2108:Z 8.24352e-05
3 *1454:D *412:8 7.72792e-06
4 *1454:D *948:8 8.46291e-05
5 *1454:D *1297:98 3.02372e-05
6 *1786:B2 *1454:D 6.41837e-05
7 *134:8 *1454:D 2.99872e-05
*RES
1 *2108:Z *1454:D 33.8929 
*END

*D_NET *300 0.000118957
*CONN
*I *1453:D I *D DFF_X1
*I *2110:ZN O *D OAI21_X1
*CAP
1 *1453:D 3.11024e-05
2 *2110:ZN 3.11024e-05
3 *1453:D *2110:B1 1.5896e-05
4 *1453:D *391:68 3.90891e-05
5 *1453:D *391:88 1.76665e-06
*RES
1 *2110:ZN *1453:D 14.6786 
*END

*D_NET *301 0.000188867
*CONN
*I *1452:D I *D DFF_X1
*I *2113:ZN O *D OAI21_X1
*CAP
1 *1452:D 4.10812e-05
2 *2113:ZN 4.10812e-05
3 *1452:D *1452:CK 4.29135e-05
4 *1452:D *1860:B1 1.51547e-06
5 *1452:D *595:32 6.8089e-06
6 *1452:D *595:47 4.23376e-05
7 *1452:D *1299:102 1.31288e-05
*RES
1 *2113:ZN *1452:D 26.0357 
*END

*D_NET *302 0.000202026
*CONN
*I *1451:D I *D DFF_X1
*I *2116:ZN O *D NAND2_X1
*CAP
1 *1451:D 4.69039e-05
2 *2116:ZN 4.69039e-05
3 *1451:D *1451:CK 5.38515e-05
4 *1451:D *1868:B2 8.56923e-06
5 *1451:D *2116:A1 1.63523e-05
6 *1451:D *2116:A2 2.94455e-05
7 *1451:D *593:78 0
8 *1451:D *593:89 0
*RES
1 *2116:ZN *1451:D 26.2143 
*END

*D_NET *303 0.000205463
*CONN
*I *1450:D I *D DFF_X1
*I *2118:ZN O *D OAI21_X1
*CAP
1 *1450:D 7.58547e-05
2 *2118:ZN 7.58547e-05
3 *1450:D *1450:CK 5.37537e-05
4 *130:6 *1450:D 0
*RES
1 *2118:ZN *1450:D 19.3929 
*END

*D_NET *304 0.00015462
*CONN
*I *1449:D I *D DFF_X1
*I *2121:ZN O *D NAND2_X2
*CAP
1 *1449:D 7.65097e-05
2 *2121:ZN 7.65097e-05
3 *1449:D *1449:CK 6.38328e-07
4 *1449:D *2121:A1 0
5 *1449:D *2121:A2 9.62051e-07
6 *1449:D *593:89 0
7 *1449:D *593:126 0
8 *1449:D *595:98 0
*RES
1 *2121:ZN *1449:D 17.5357 
*END

*D_NET *305 8.7962e-05
*CONN
*I *1463:D I *D DFF_X1
*I *2126:ZN O *D NAND2_X1
*CAP
1 *1463:D 3.69863e-05
2 *2126:ZN 3.69863e-05
3 *1463:D *403:14 7.26174e-06
4 *1463:D *595:76 6.51157e-06
5 *1463:D *595:89 2.16072e-07
*RES
1 *2126:ZN *1463:D 13.75 
*END

*D_NET *306 0.000118672
*CONN
*I *1462:D I *D DFF_X1
*I *2127:Z O *D MUX2_X1
*CAP
1 *1462:D 3.39897e-05
2 *2127:Z 3.39897e-05
3 *1462:D *1462:CK 2.75346e-06
4 *1462:D *401:33 4.21928e-05
5 *1462:D *1303:268 5.74635e-06
*RES
1 *2127:Z *1462:D 14.6786 
*END

*D_NET *307 0.000160172
*CONN
*I *1461:D I *D DFF_X1
*I *2129:ZN O *D OAI21_X1
*CAP
1 *1461:D 5.25727e-05
2 *2129:ZN 5.25727e-05
3 *1461:D *2129:B1 5.41831e-05
4 *1461:D *2136:B2 8.43215e-07
5 *1461:D *403:76 0
6 *1461:D *811:63 0
*RES
1 *2129:ZN *1461:D 16.1786 
*END

*D_NET *308 0.000100295
*CONN
*I *1460:D I *D DFF_X1
*I *2131:ZN O *D OAI21_X1
*CAP
1 *1460:D 3.79645e-05
2 *2131:ZN 3.79645e-05
3 *1460:D *2130:A2 1.18547e-06
4 *1460:D *401:33 1.57087e-05
5 *1460:D *1295:134 6.19568e-06
6 *1460:D *1307:63 6.38328e-07
7 *1460:D *1307:74 6.38328e-07
*RES
1 *2131:ZN *1460:D 14.6786 
*END

*D_NET *309 0.000131026
*CONN
*I *1459:D I *D DFF_X1
*I *2134:ZN O *D NAND2_X1
*CAP
1 *1459:D 6.03714e-05
2 *2134:ZN 6.03714e-05
3 *1459:D *1459:CK 6.38328e-07
4 *1459:D *2134:A2 9.64489e-06
5 *1459:D *401:68 0
*RES
1 *2134:ZN *1459:D 26.0357 
*END

*D_NET *310 0.000173501
*CONN
*I *1458:D I *D DFF_X1
*I *2136:ZN O *D OAI21_X1
*CAP
1 *1458:D 8.43569e-05
2 *2136:ZN 8.43569e-05
3 *1458:D *1311:32 6.38328e-07
4 *1458:D *1311:47 4.14913e-06
*RES
1 *2136:ZN *1458:D 18.75 
*END

*D_NET *311 0.000110189
*CONN
*I *1457:D I *D DFF_X1
*I *2139:ZN O *D NAND2_X1
*CAP
1 *1457:D 5.38962e-05
2 *2139:ZN 5.38962e-05
3 *1457:D *1457:CK 0
4 *1457:D *1311:17 0
5 *1457:D *1311:32 2.39679e-06
*RES
1 *2139:ZN *1457:D 15.3571 
*END

*D_NET *312 0.00020267
*CONN
*I *1351:D I *D DFF_X1
*I *2144:ZN O *D NAND2_X1
*CAP
1 *1351:D 5.09208e-05
2 *2144:ZN 5.09208e-05
3 *1351:D *2144:A2 3.07768e-05
4 *1351:D *414:33 0
5 *1351:D *866:8 2.97112e-05
6 *1351:D *1294:82 2.08416e-06
7 *2143:A2 *1351:D 3.82567e-05
*RES
1 *2144:ZN *1351:D 28.2857 
*END

*D_NET *313 0.000139892
*CONN
*I *1350:D I *D DFF_X1
*I *2145:Z O *D MUX2_X1
*CAP
1 *1350:D 2.89591e-05
2 *2145:Z 2.89591e-05
3 *1350:D *389:6 6.48216e-07
4 *1350:D *1297:75 3.48838e-06
5 *1350:D *1297:92 1.01993e-05
6 *2145:A *1350:D 6.76378e-05
*RES
1 *2145:Z *1350:D 24.3929 
*END

*D_NET *314 0.000196122
*CONN
*I *1349:D I *D DFF_X1
*I *2147:ZN O *D OAI21_X1
*CAP
1 *1349:D 5.52741e-05
2 *2147:ZN 5.52741e-05
3 *1349:D *2146:A1 6.74689e-05
4 *2146:A2 *1349:D 1.81046e-05
*RES
1 *2147:ZN *1349:D 27.7143 
*END

*D_NET *315 0.0001241
*CONN
*I *1348:D I *D DFF_X1
*I *2150:ZN O *D OAI21_X1
*CAP
1 *1348:D 4.66001e-05
2 *2150:ZN 4.66001e-05
3 *1348:D *2150:A 0
4 *1348:D *2150:B1 3.09002e-05
5 *1348:D *1295:111 0
6 *1348:D *1295:124 0
*RES
1 *2150:ZN *1348:D 25.5714 
*END

*D_NET *316 0.000224197
*CONN
*I *1347:D I *D DFF_X1
*I *2153:ZN O *D NAND2_X1
*CAP
1 *1347:D 7.9914e-05
2 *2153:ZN 7.9914e-05
3 *1347:D *2151:A1 3.01743e-06
4 *1347:D *2153:A1 2.13496e-05
5 *1347:D *2153:A2 1.90574e-06
6 *1347:D *414:33 0
7 *1347:D *1294:82 2.08416e-06
8 *2152:A2 *1347:D 3.60121e-05
*RES
1 *2153:ZN *1347:D 30.3214 
*END

*D_NET *317 0.000279887
*CONN
*I *1346:D I *D DFF_X1
*I *2155:ZN O *D OAI21_X1
*CAP
1 *1346:D 6.34106e-05
2 *2155:ZN 6.34106e-05
3 *1346:D *2147:B1 4.32144e-07
4 *1346:D *2155:B2 8.14241e-05
5 *1346:D *414:77 7.12091e-05
*RES
1 *2155:ZN *1346:D 28.9643 
*END

*D_NET *318 8.03571e-05
*CONN
*I *1345:D I *D DFF_X1
*I *2158:ZN O *D NAND2_X1
*CAP
1 *1345:D 3.78953e-05
2 *2158:ZN 3.78953e-05
3 *1345:D *2158:A2 4.56654e-06
*RES
1 *2158:ZN *1345:D 24.3214 
*END

*D_NET *319 0.000168691
*CONN
*I *1359:D I *D DFF_X1
*I *2163:ZN O *D NAND2_X1
*CAP
1 *1359:D 4.45776e-05
2 *2163:ZN 4.45776e-05
3 *1359:D *2160:A1 1.51496e-05
4 *1359:D *2163:A2 6.18532e-06
5 *1359:D *424:37 3.89107e-05
6 *1359:D *986:8 1.14703e-05
7 *1359:D *1294:130 7.82011e-06
*RES
1 *2163:ZN *1359:D 26.7143 
*END

*D_NET *320 6.83641e-05
*CONN
*I *1358:D I *D DFF_X1
*I *2164:Z O *D MUX2_X1
*CAP
1 *1358:D 3.4182e-05
2 *2164:Z 3.4182e-05
*RES
1 *2164:Z *1358:D 13.6429 
*END

*D_NET *321 0.000123029
*CONN
*I *1357:D I *D DFF_X1
*I *2166:ZN O *D OAI21_X1
*CAP
1 *1357:D 5.69512e-05
2 *2166:ZN 5.69512e-05
3 *1357:D *2166:A 1.21774e-06
4 *37:12 *1357:D 7.90853e-06
*RES
1 *2166:ZN *1357:D 16.1786 
*END

*D_NET *322 8.62826e-05
*CONN
*I *1356:D I *D DFF_X1
*I *2169:ZN O *D OAI21_X1
*CAP
1 *1356:D 3.83941e-05
2 *2169:ZN 3.83941e-05
3 *1356:D *2167:A1 2.16072e-07
4 *1356:D *2169:B1 2.39679e-06
5 *1356:D *1295:147 6.88146e-06
6 *2168:A *1356:D 0
*RES
1 *2169:ZN *1356:D 13.75 
*END

*D_NET *323 0.000135223
*CONN
*I *1355:D I *D DFF_X1
*I *2172:ZN O *D NAND2_X1
*CAP
1 *1355:D 4.4175e-05
2 *2172:ZN 4.4175e-05
3 *1355:D *2172:A1 3.43347e-05
4 *1355:D *2172:A2 8.9743e-06
5 *1355:D *426:41 0
6 *2171:A2 *1355:D 3.56398e-06
*RES
1 *2172:ZN *1355:D 15.4286 
*END

*D_NET *324 0.000383037
*CONN
*I *1354:D I *D DFF_X1
*I *2174:ZN O *D OAI21_X1
*CAP
1 *1354:D 8.25078e-05
2 *2174:ZN 8.25078e-05
3 *1354:D *1354:CK 2.16578e-05
4 *1354:D *2174:A 1.10223e-05
5 *1354:D *426:64 2.80727e-05
6 *1354:D *811:82 0
7 *1354:D *922:24 0.000157269
*RES
1 *2174:ZN *1354:D 32.3929 
*END

*D_NET *325 0.000204456
*CONN
*I *1353:D I *D DFF_X1
*I *2177:ZN O *D NAND2_X1
*CAP
1 *1353:D 7.6178e-05
2 *2177:ZN 7.6178e-05
3 *1353:D *1353:CK 1.37673e-05
4 *1353:D *1864:A1 1.32348e-05
5 *1353:D *2176:A1 7.29164e-07
6 *1353:D *2177:A2 8.66302e-07
7 *1353:D *884:79 5.11574e-06
8 *1914:A2 *1353:D 9.80007e-06
9 *2176:A2 *1353:D 8.58686e-06
*RES
1 *2177:ZN *1353:D 19.8929 
*END

*D_NET *326 0.000113979
*CONN
*I *1367:D I *D DFF_X1
*I *2182:ZN O *D NAND2_X1
*CAP
1 *1367:D 5.11394e-05
2 *2182:ZN 5.11394e-05
3 *1367:D *2194:A2 4.48197e-06
4 *1367:D *438:37 0
5 *1367:D *1318:18 7.2187e-06
*RES
1 *2182:ZN *1367:D 15.3571 
*END

*D_NET *327 0.000256561
*CONN
*I *1366:D I *D DFF_X1
*I *2183:Z O *D MUX2_X1
*CAP
1 *1366:D 0.000106956
2 *2183:Z 0.000106956
3 *1366:D *1366:CK 1.14314e-05
4 *1366:D *1303:93 4.44885e-06
5 *1792:B2 *1366:D 4.43868e-06
6 *2183:A *1366:D 2.2331e-05
*RES
1 *2183:Z *1366:D 32.3214 
*END

*D_NET *328 0.000131308
*CONN
*I *1365:D I *D DFF_X1
*I *2185:ZN O *D OAI21_X1
*CAP
1 *1365:D 6.5654e-05
2 *2185:ZN 6.5654e-05
3 *1365:D *1365:CK 0
4 *1365:D *756:122 0
5 *1365:D *756:173 0
*RES
1 *2185:ZN *1365:D 26.0357 
*END

*D_NET *329 0.000261583
*CONN
*I *1364:D I *D DFF_X1
*I *2188:ZN O *D OAI21_X1
*CAP
1 *1364:D 7.84776e-05
2 *2188:ZN 7.84776e-05
3 *1364:D *1380:CK 1.26998e-05
4 *1364:D *2186:A1 6.86795e-05
5 *1364:D *2188:B1 7.59749e-06
6 *1364:D *448:14 0
7 *1364:D *1295:172 6.48216e-07
8 *1364:D *1295:182 6.48216e-07
9 *2187:A *1364:D 1.43544e-05
*RES
1 *2188:ZN *1364:D 29.6429 
*END

*D_NET *330 0.000125262
*CONN
*I *1363:D I *D DFF_X1
*I *2191:ZN O *D NAND2_X1
*CAP
1 *1363:D 3.89836e-05
2 *2191:ZN 3.89836e-05
3 *1363:D *436:88 7.34989e-06
4 *1363:D *438:28 3.99453e-05
*RES
1 *2191:ZN *1363:D 15.1786 
*END

*D_NET *331 0.000163448
*CONN
*I *1362:D I *D DFF_X1
*I *2193:ZN O *D OAI21_X1
*CAP
1 *1362:D 5.85246e-05
2 *2193:ZN 5.85246e-05
3 *1362:D *1362:CK 6.38328e-07
4 *1362:D *438:61 3.51992e-06
5 *1362:D *756:128 1.64551e-05
6 *1362:D *811:143 2.57857e-05
7 *1362:D *915:12 0
*RES
1 *2193:ZN *1362:D 27.3929 
*END

*D_NET *332 0.000179589
*CONN
*I *1361:D I *D DFF_X1
*I *2196:ZN O *D NAND2_X1
*CAP
1 *1361:D 5.24259e-05
2 *2196:ZN 5.24259e-05
3 *1361:D *1361:CK 1.85131e-05
4 *145:8 *1361:D 5.62244e-05
*RES
1 *2196:ZN *1361:D 26.4643 
*END

*D_NET *333 0.000491181
*CONN
*I *1375:D I *D DFF_X1
*I *2201:ZN O *D NAND2_X1
*CAP
1 *1375:D 5.64062e-05
2 *2201:ZN 5.64062e-05
3 *1375:D *1331:CK 3.98918e-06
4 *1375:D *2250:A2 6.48216e-07
5 *1375:D *450:33 1.48912e-05
6 *1375:D *450:48 0.00019605
7 *1375:D *473:32 3.09411e-06
8 *1375:D *1298:214 1.88334e-06
9 *1747:A2 *1375:D 0.000157813
*RES
1 *2201:ZN *1375:D 32.5357 
*END

*D_NET *334 0.000405912
*CONN
*I *1374:D I *D DFF_X1
*I *2202:Z O *D MUX2_X1
*CAP
1 *1374:D 8.16537e-05
2 *2202:Z 8.16537e-05
3 *1374:D *1794:B1 2.50534e-05
4 *1374:D *837:388 1.72426e-05
5 *1374:D *845:168 0
6 *1374:D *1303:108 1.66988e-05
7 *1374:D *1303:110 7.72537e-06
8 *1374:D *1306:35 1.43544e-05
9 *1374:D *1306:46 1.94663e-05
10 *1374:D *1306:102 4.46863e-05
11 *1793:A2 *1374:D 6.73899e-05
12 *54:8 *1374:D 2.99872e-05
*RES
1 *2202:Z *1374:D 33.8929 
*END

*D_NET *335 0.000118791
*CONN
*I *1373:D I *D DFF_X1
*I *2204:ZN O *D OAI21_X1
*CAP
1 *1373:D 3.23972e-05
2 *2204:ZN 3.23972e-05
3 *1373:D *2204:B1 3.89149e-05
4 *1373:D *811:185 1.50816e-05
*RES
1 *2204:ZN *1373:D 14.6786 
*END

*D_NET *336 0.000171547
*CONN
*I *1372:D I *D DFF_X1
*I *2206:ZN O *D OAI21_X1
*CAP
1 *1372:D 6.35075e-05
2 *2206:ZN 6.35075e-05
3 *1372:D *2206:B1 2.75346e-06
4 *1372:D *436:36 2.57883e-05
5 *1372:D *935:8 0
6 *1372:D *1312:56 8.43215e-07
7 *1372:D *1312:60 1.51469e-05
*RES
1 *2206:ZN *1372:D 27.3929 
*END

*D_NET *337 0.000455221
*CONN
*I *1371:D I *D DFF_X1
*I *2209:ZN O *D NAND2_X1
*CAP
1 *1371:D 6.53955e-05
2 *2209:ZN 6.53955e-05
3 *1371:D *1336:CK 8.08825e-05
4 *1371:D *2207:A1 1.32167e-05
5 *1371:D *450:14 1.53357e-05
6 *1371:D *473:25 9.57492e-07
7 *1371:D *1315:97 5.62244e-05
8 *1873:A2 *1371:D 0.000157813
*RES
1 *2209:ZN *1371:D 32.5357 
*END

*D_NET *338 0.000342711
*CONN
*I *1370:D I *D DFF_X1
*I *2211:ZN O *D OAI21_X1
*CAP
1 *1370:D 8.01042e-05
2 *2211:ZN 8.01042e-05
3 *1370:D *2211:A 8.43215e-07
4 *1370:D *473:36 0
5 *1370:D *837:316 0
6 *1813:A2 *1370:D 3.17947e-05
7 *1892:A2 *1370:D 9.38792e-05
8 *2210:A2 *1370:D 4.79658e-06
9 *50:8 *1370:D 5.1189e-05
*RES
1 *2211:ZN *1370:D 31.7143 
*END

*D_NET *339 0.000494633
*CONN
*I *1369:D I *D DFF_X1
*I *2214:ZN O *D NAND2_X1
*CAP
1 *1369:D 0.000234222
2 *2214:ZN 0.000234222
3 *1369:D *1920:A1 7.19036e-06
4 *1369:D *2214:A2 0
5 *1369:D *450:52 0
6 *1369:D *450:63 0
7 *1369:D *837:279 0
8 *1369:D *837:286 0
9 *1369:D *837:301 0
10 *1369:D *1292:196 1.82823e-05
11 *1369:D *1319:78 7.16188e-07
12 *1329:D *1369:D 0
13 *2213:A2 *1369:D 0
*RES
1 *2214:ZN *1369:D 43.5 
*END

*D_NET *340 0.000106332
*CONN
*I *1383:D I *D DFF_X1
*I *2219:ZN O *D NAND2_X1
*CAP
1 *1383:D 4.45142e-05
2 *2219:ZN 4.45142e-05
3 *1383:D *2219:A1 1.76665e-06
4 *1383:D *461:67 0
5 *1383:D *595:211 1.55374e-05
*RES
1 *2219:ZN *1383:D 14.6786 
*END

*D_NET *341 0.000282102
*CONN
*I *1382:D I *D DFF_X1
*I *2220:Z O *D MUX2_X1
*CAP
1 *1382:D 0.000131476
2 *2220:Z 0.000131476
3 *1382:D *1791:A 0
4 *1382:D *1794:B1 0
5 *1382:D *2220:S 1.915e-05
6 *1382:D *448:14 0
*RES
1 *2220:Z *1382:D 33.1429 
*END

*D_NET *342 0.000202969
*CONN
*I *1381:D I *D DFF_X1
*I *2222:ZN O *D OAI21_X1
*CAP
1 *1381:D 8.62117e-05
2 *2222:ZN 8.62117e-05
3 *1381:D *2222:B2 6.21255e-06
4 *1381:D *438:46 1.64551e-05
5 *1381:D *1303:547 7.87811e-06
6 *1381:D *1319:10 0
7 *1381:D *1319:59 0
*RES
1 *2222:ZN *1381:D 29.4286 
*END

*D_NET *343 9.41158e-05
*CONN
*I *1380:D I *D DFF_X1
*I *2225:ZN O *D OAI21_X1
*CAP
1 *1380:D 2.92457e-05
2 *2225:ZN 2.92457e-05
3 *1380:D *459:29 2.73661e-05
4 *1380:D *1295:170 8.2584e-06
*RES
1 *2225:ZN *1380:D 13.75 
*END

*D_NET *344 0.000160828
*CONN
*I *1379:D I *D DFF_X1
*I *2228:ZN O *D NAND2_X1
*CAP
1 *1379:D 4.93863e-05
2 *2228:ZN 4.93863e-05
3 *1379:D *2228:A2 2.39679e-06
4 *1379:D *1294:194 1.71847e-05
5 *2227:A2 *1379:D 4.24735e-05
*RES
1 *2228:ZN *1379:D 16.3571 
*END

*D_NET *345 0.000181717
*CONN
*I *1378:D I *D DFF_X1
*I *2230:ZN O *D OAI21_X1
*CAP
1 *1378:D 5.56512e-05
2 *2230:ZN 5.56512e-05
3 *1378:D *1378:CK 2.82826e-05
4 *1378:D *461:25 1.60664e-06
5 *1378:D *595:213 3.83783e-05
6 *1378:D *1319:59 2.14667e-06
*RES
1 *2230:ZN *1378:D 26.9643 
*END

*D_NET *346 0.00010657
*CONN
*I *1377:D I *D DFF_X1
*I *2233:ZN O *D NAND2_X2
*CAP
1 *1377:D 3.09839e-05
2 *2233:ZN 3.09839e-05
3 *1377:D *595:213 3.35796e-05
4 *1377:D *1292:190 1.10223e-05
*RES
1 *2233:ZN *1377:D 14.1786 
*END

*D_NET *347 0.000272789
*CONN
*I *1391:D I *D DFF_X1
*I *2238:ZN O *D NAND2_X1
*CAP
1 *1391:D 0.000105117
2 *2238:ZN 0.000105117
3 *1391:D *837:259 0
4 *1736:A2 *1391:D 6.25556e-05
*RES
1 *2238:ZN *1391:D 32.3571 
*END

*D_NET *348 0.000117115
*CONN
*I *1390:D I *D DFF_X1
*I *2239:Z O *D MUX2_X1
*CAP
1 *1390:D 4.10113e-05
2 *2239:Z 4.10113e-05
3 *1390:D *1390:CK 6.38328e-07
4 *1390:D *2239:B 1.04584e-06
5 *1390:D *1297:116 3.3408e-05
*RES
1 *2239:Z *1390:D 14.8571 
*END

*D_NET *349 0.000283756
*CONN
*I *1389:D I *D DFF_X1
*I *2241:ZN O *D OAI21_X1
*CAP
1 *1389:D 0.000141878
2 *2241:ZN 0.000141878
3 *1389:D *1303:588 0
4 *1389:D *1319:135 0
5 *1389:D *1319:139 0
*RES
1 *2241:ZN *1389:D 33.5 
*END

*D_NET *350 0.00010334
*CONN
*I *1388:D I *D DFF_X1
*I *2244:ZN O *D OAI21_X1
*CAP
1 *1388:D 4.18653e-05
2 *2244:ZN 4.18653e-05
3 *1388:D *2244:A 2.39679e-06
4 *1388:D *2244:B1 7.29164e-07
5 *1388:D *376:55 6.07779e-06
6 *1388:D *1312:46 1.60038e-06
7 *68:12 *1388:D 8.80561e-06
*RES
1 *2244:ZN *1388:D 14.6786 
*END

*D_NET *351 0.000348382
*CONN
*I *1387:D I *D DFF_X1
*I *2247:ZN O *D NAND2_X1
*CAP
1 *1387:D 7.42936e-05
2 *2247:ZN 7.42936e-05
3 *1387:D *1874:B2 5.59876e-05
4 *1387:D *2246:A1 2.94455e-05
5 *1387:D *1294:254 1.09969e-05
6 *1387:D *1315:52 4.39587e-05
7 *1387:D *1315:71 5.49644e-05
8 *1387:D *1315:97 4.44127e-06
*RES
1 *2247:ZN *1387:D 31.7857 
*END

*D_NET *352 0.000179117
*CONN
*I *1386:D I *D DFF_X1
*I *2249:ZN O *D OAI21_X1
*CAP
1 *1386:D 6.10416e-05
2 *2249:ZN 6.10416e-05
3 *1386:D *1703:A 4.87268e-05
4 *1386:D *2249:B2 0
5 *1386:D *473:46 8.30669e-06
6 *1386:D *473:64 0
*RES
1 *2249:ZN *1386:D 17.5357 
*END

*D_NET *353 9.63925e-05
*CONN
*I *1385:D I *D DFF_X1
*I *2252:ZN O *D NAND2_X2
*CAP
1 *1385:D 4.81962e-05
2 *2252:ZN 4.81962e-05
3 *1385:D *2252:A2 0
*RES
1 *2252:ZN *1385:D 14.6786 
*END

*D_NET *354 0.000477969
*CONN
*I *1392:D I *D DFF_X1
*I *2326:ZN O *D NAND2_X1
*CAP
1 *1392:D 9.78586e-05
2 *2326:ZN 9.78586e-05
3 *1392:D *1392:CK 5.53323e-05
4 *1392:D *2325:A1 3.51536e-06
5 *1392:D *448:57 0
6 *152:8 *1392:D 0.000223405
*RES
1 *2326:ZN *1392:D 35.0357 
*END

*D_NET *355 0.000108107
*CONN
*I *1384:D I *D DFF_X1
*I *2329:ZN O *D NAND2_X1
*CAP
1 *1384:D 5.35726e-05
2 *2329:ZN 5.35726e-05
3 *1384:D *1384:CK 9.62051e-07
*RES
1 *2329:ZN *1384:D 15.5714 
*END

*D_NET *356 0.000269621
*CONN
*I *1376:D I *D DFF_X1
*I *2332:ZN O *D NAND2_X1
*CAP
1 *1376:D 0.000134811
2 *2332:ZN 0.000134811
3 *1376:D *1506:A 0
4 *1376:D *2332:A1 0
5 *1376:D *448:40 0
6 *2262:A2 *1376:D 0
7 *56:8 *1376:D 0
*RES
1 *2332:ZN *1376:D 33.6786 
*END

*D_NET *357 0.000109215
*CONN
*I *1368:D I *D DFF_X1
*I *2335:ZN O *D NAND2_X1
*CAP
1 *1368:D 4.54432e-05
2 *2335:ZN 4.54432e-05
3 *1368:D *2333:A1 1.83288e-05
4 *1368:D *598:155 0
*RES
1 *2335:ZN *1368:D 15.1786 
*END

*D_NET *358 0.000195507
*CONN
*I *1360:D I *D DFF_X1
*I *2338:ZN O *D NAND2_X1
*CAP
1 *1360:D 9.63031e-05
2 *2338:ZN 9.63031e-05
3 *1360:D *1360:CK 2.90101e-06
4 *1360:D *2338:A2 0
5 *1360:D *487:10 0
*RES
1 *2338:ZN *1360:D 29.75 
*END

*D_NET *359 0.00017353
*CONN
*I *1352:D I *D DFF_X1
*I *2341:ZN O *D NAND2_X1
*CAP
1 *1352:D 3.95555e-05
2 *2341:ZN 3.95555e-05
3 *1352:D *2340:A1 0
4 *1352:D *1294:78 0
5 *1352:D *1294:130 0
6 *2340:A2 *1352:D 9.44188e-05
*RES
1 *2341:ZN *1352:D 25.75 
*END

*D_NET *360 0.000125946
*CONN
*I *1464:D I *D DFF_X1
*I *2344:ZN O *D NAND2_X1
*CAP
1 *1464:D 4.04089e-05
2 *2344:ZN 4.04089e-05
3 *1464:D *2344:A1 4.51285e-05
*RES
1 *2344:ZN *1464:D 15.1786 
*END

*D_NET *361 0.000169998
*CONN
*I *1456:D I *D DFF_X1
*I *2347:ZN O *D NAND2_X1
*CAP
1 *1456:D 6.14262e-05
2 *2347:ZN 6.14262e-05
3 *1456:D *2347:A1 3.73373e-05
4 *1456:D *401:59 9.80831e-06
*RES
1 *2347:ZN *1456:D 17.4643 
*END

*D_NET *362 0.000385239
*CONN
*I *1448:D I *D DFF_X1
*I *2350:ZN O *D NAND2_X1
*CAP
1 *1448:D 5.97833e-05
2 *2350:ZN 5.97833e-05
3 *1448:D *2348:A2 8.32032e-05
4 *1448:D *2349:A1 4.96057e-05
5 *1448:D *378:10 0.000132863
6 *1448:D *1280:217 0
*RES
1 *2350:ZN *1448:D 31.7857 
*END

*D_NET *363 0.000233296
*CONN
*I *1440:D I *D DFF_X1
*I *2353:ZN O *D NAND2_X1
*CAP
1 *1440:D 3.95968e-05
2 *2353:ZN 3.95968e-05
3 *1440:D *2075:A1 2.52965e-06
4 *1440:D *2353:A1 1.72405e-05
5 *1440:D *1299:121 3.99139e-05
6 *2352:A2 *1440:D 9.44188e-05
*RES
1 *2353:ZN *1440:D 27.1071 
*END

*D_NET *364 0.000109501
*CONN
*I *1432:D I *D DFF_X1
*I *2356:ZN O *D NAND2_X1
*CAP
1 *1432:D 5.08117e-05
2 *2356:ZN 5.08117e-05
3 *1432:D *1100:77 7.87811e-06
4 *1432:D *1102:12 0
5 *112:12 *1432:D 0
*RES
1 *2356:ZN *1432:D 15.3571 
*END

*D_NET *365 0.000247491
*CONN
*I *1424:D I *D DFF_X1
*I *2359:ZN O *D NAND2_X1
*CAP
1 *1424:D 9.9236e-05
2 *2359:ZN 9.9236e-05
3 *1424:D *1424:CK 2.64543e-05
4 *1424:D *2099:A2 0
5 *1424:D *609:97 2.25647e-05
6 *121:12 *1424:D 0
*RES
1 *2359:ZN *1424:D 31.6429 
*END

*D_NET *366 0.000303277
*CONN
*I *1416:D I *D DFF_X1
*I *2362:ZN O *D NAND2_X1
*CAP
1 *1416:D 8.95013e-05
2 *2362:ZN 8.95013e-05
3 *1416:D *1416:CK 5.54348e-05
4 *1416:D *2362:A2 2.6814e-05
5 *1416:D *837:449 2.55029e-06
6 *1416:D *1075:47 7.78005e-06
7 *1416:D *1075:53 1.61002e-06
8 *1416:D *1077:8 0
9 *2271:A2 *1416:D 2.51177e-05
10 *2361:A2 *1416:D 4.9678e-06
*RES
1 *2362:ZN *1416:D 31.2857 
*END

*D_NET *367 0.000134596
*CONN
*I *1408:D I *D DFF_X1
*I *2365:ZN O *D NAND2_X1
*CAP
1 *1408:D 6.63405e-05
2 *2365:ZN 6.63405e-05
3 *1408:D *1062:38 0
4 *1408:D *1305:42 1.27666e-06
5 *1408:D *1305:48 6.38328e-07
6 *2364:A2 *1408:D 0
*RES
1 *2365:ZN *1408:D 16.7143 
*END

*D_NET *368 9.24332e-05
*CONN
*I *1400:D I *D DFF_X1
*I *2368:ZN O *D NAND2_X1
*CAP
1 *1400:D 3.68253e-05
2 *2368:ZN 3.68253e-05
3 *1400:D *1400:CK 6.38328e-07
4 *1400:D *2367:A1 0
5 *1400:D *633:100 1.81442e-05
6 *2367:A2 *1400:D 0
*RES
1 *2368:ZN *1400:D 14.25 
*END

*D_NET *369 9.41203e-05
*CONN
*I *1344:D I *D DFF_X1
*I *2371:ZN O *D NAND2_X1
*CAP
1 *1344:D 4.40158e-05
2 *2371:ZN 4.40158e-05
3 *1344:D *2369:A1 0
4 *1344:D *1303:889 6.0887e-06
*RES
1 *2371:ZN *1344:D 14.8929 
*END

*D_NET *370 0.000100028
*CONN
*I *1326:D I *D DFFR_X2
*I *1944:Z O *D MUX2_X1
*CAP
1 *1326:D 3.63359e-05
2 *1944:Z 3.63359e-05
3 *1326:D *1325:RN 0
4 *1326:D *1326:CK 3.74029e-06
5 *1326:D *1303:16 2.36158e-05
*RES
1 *1944:Z *1326:D 14.1786 
*END

*D_NET *371 8.7141e-05
*CONN
*I *1327:D I *D DFFR_X1
*I *1943:ZN O *D OAI21_X1
*CAP
1 *1327:D 3.63729e-05
2 *1943:ZN 3.63729e-05
3 *1327:D *1304:106 1.43952e-05
4 *154:27 *1327:D 0
*RES
1 *1943:ZN *1327:D 13.75 
*END

*D_NET *372 8.27402e-05
*CONN
*I *1328:D I *D DFFR_X1
*I *2381:ZN O *D OAI21_X1
*CAP
1 *1328:D 2.99271e-05
2 *2381:ZN 2.99271e-05
3 *1328:D *1300:14 2.39679e-06
4 *1328:D *1304:106 1.26146e-05
5 *2687:A *1328:D 7.87454e-06
*RES
1 *2381:ZN *1328:D 13.75 
*END

*D_NET *373 7.01874e-05
*CONN
*I *2079:A I *D OAI21_X1
*I *2078:ZN O *D NAND2_X1
*CAP
1 *2079:A 3.19438e-05
2 *2078:ZN 3.19438e-05
3 *2079:A *2078:A1 9.57492e-07
4 *2079:A *2079:B1 5.34233e-06
5 *114:6 *2079:A 0
*RES
1 *2078:ZN *2079:A 13.5357 
*END

*D_NET *374 7.53584e-05
*CONN
*I *2082:A1 I *D NAND2_X1
*I *2080:ZN O *D NAND2_X1
*CAP
1 *2082:A1 2.86447e-05
2 *2080:ZN 2.86447e-05
3 *2082:A1 *2080:A1 2.39679e-06
4 *2082:A1 *2080:A2 4.79358e-06
5 *1433:D *2082:A1 8.26038e-06
6 *2081:A2 *2082:A1 2.61827e-06
*RES
1 *2080:ZN *2082:A1 14.1071 
*END

*D_NET *375 0.000126219
*CONN
*I *2082:A2 I *D NAND2_X1
*I *2081:ZN O *D NAND2_X1
*CAP
1 *2082:A2 4.03412e-05
2 *2081:ZN 4.03412e-05
3 *2082:A2 *1433:CK 9.73377e-06
4 *2082:A2 *2080:A1 1.65484e-05
5 *2082:A2 *609:85 1.41532e-05
6 *2082:A2 *1313:56 5.10087e-06
*RES
1 *2081:ZN *2082:A2 25.6786 
*END

*D_NET *376 0.00878435
*CONN
*I *2094:A2 I *D NAND2_X1
*I *2348:A2 I *D NAND2_X1
*I *2084:A2 I *D NAND2_X1
*I *2099:A2 I *D NAND2_X1
*I *2085:A I *D INV_X1
*I *2091:A2 I *D NAND2_X1
*I *2093:B2 I *D OAI21_X1
*I *2088:S I *D MUX2_X1
*I *2083:ZN O *D NOR2_X2
*CAP
1 *2094:A2 4.64463e-05
2 *2348:A2 0.000114601
3 *2084:A2 0.000280717
4 *2099:A2 0.000168344
5 *2085:A 0
6 *2091:A2 0
7 *2093:B2 0
8 *2088:S 0
9 *2083:ZN 0.00035745
10 *376:80 0.000514238
11 *376:78 0.000347217
12 *376:72 0.000453402
13 *376:65 0.000200539
14 *376:59 0.000419784
15 *376:55 0.000598191
16 *376:51 0.000382896
17 *376:40 3.85059e-05
18 *376:31 3.58277e-05
19 *376:27 0.000340117
20 *376:14 0.000685981
21 *2084:A2 *1881:A1 1.54336e-05
22 *2084:A2 *1888:A1 1.07393e-05
23 *2084:A2 *1888:A2 0
24 *2084:A2 *2038:A1 6.46429e-06
25 *2084:A2 *2039:A1 9.58715e-06
26 *2084:A2 *2040:A2 1.01341e-05
27 *2084:A2 *378:63 6.11769e-05
28 *2084:A2 *378:67 1.59582e-06
29 *2084:A2 *1088:72 1.44755e-05
30 *2084:A2 *1294:180 1.70233e-05
31 *2094:A2 *2056:A1 0.000146399
32 *2099:A2 *1424:CK 0
33 *2099:A2 *2080:A1 8.43215e-07
34 *2099:A2 *2100:A1 0.000489689
35 *2099:A2 *2101:A1 7.72792e-06
36 *2099:A2 *2357:A2 0
37 *2099:A2 *1292:138 1.68643e-06
38 *2348:A2 *2348:A1 1.21774e-06
39 *2348:A2 *2350:A1 2.75346e-06
40 *2348:A2 *436:52 0
41 *2348:A2 *1280:217 0
42 *2348:A2 *1314:26 1.60038e-06
43 *2348:A2 *1314:30 0
44 *376:14 *2064:A1 1.34109e-07
45 *376:14 *2220:S 0
46 *376:14 *884:14 2.42148e-07
47 *376:14 *1087:36 4.69382e-07
48 *376:27 *1854:B2 0.000107416
49 *376:27 *1088:23 0.00108541
50 *376:31 *1088:23 4.57382e-06
51 *376:40 *1088:23 1.84823e-05
52 *376:40 *1312:68 0
53 *376:51 *1088:23 1.53357e-05
54 *376:51 *1295:212 5.64879e-06
55 *376:51 *1312:68 0
56 *376:55 *2091:A1 1.26998e-05
57 *376:55 *2205:A1 0.000118051
58 *376:55 *2242:A1 1.19839e-05
59 *376:55 *2242:A2 7.19036e-06
60 *376:55 *2244:A 0
61 *376:55 *837:125 2.02998e-05
62 *376:55 *837:133 5.9991e-05
63 *376:55 *1295:201 8.76213e-05
64 *376:55 *1312:46 0
65 *376:55 *1312:56 0
66 *376:59 *2056:A1 7.89259e-05
67 *376:59 *853:25 0.000353524
68 *376:65 *1427:CK 0
69 *376:65 *1443:CK 4.32144e-07
70 *376:65 *436:42 0
71 *376:65 *837:175 8.94571e-06
72 *376:65 *1314:34 4.12562e-05
73 *376:72 *378:6 8.14615e-05
74 *376:72 *837:175 3.89111e-05
75 *376:72 *1314:34 1.60494e-06
76 *376:78 *1878:B1 3.69863e-06
77 *376:78 *378:6 7.30645e-06
78 *376:78 *378:38 0.00014883
79 *376:78 *837:175 6.51944e-05
80 *376:78 *979:8 3.3225e-05
81 *376:78 *1303:455 1.18572e-05
82 *376:80 *1878:A 0
83 *376:80 *2100:A1 4.32319e-05
84 *376:80 *378:38 0.000140818
85 *1388:D *376:55 6.07779e-06
86 *1424:D *2099:A2 0
87 *1427:D *376:59 9.41688e-05
88 *1444:D *376:27 0
89 *1444:D *376:31 0
90 *1444:D *376:40 0
91 *1448:D *2348:A2 8.32032e-05
92 *1852:A2 *376:27 6.97608e-05
93 *1878:B2 *376:78 0
94 *2088:A *376:27 1.65276e-05
95 *107:12 *376:65 3.69417e-05
96 *121:12 *2099:A2 8.00929e-05
*RES
1 *2083:ZN *376:14 32.5014 
2 *376:14 *2088:S 10 
3 *376:14 *376:27 57.3215 
4 *376:27 *376:31 1.60714 
5 *376:31 *2093:B2 10 
6 *376:31 *376:40 2.96429 
7 *376:40 *2091:A2 10 
8 *376:40 *376:51 7.28572 
9 *376:51 *376:55 49.25 
10 *376:55 *376:59 35.6072 
11 *376:59 *376:65 22.3571 
12 *376:65 *2085:A 5 
13 *376:65 *376:72 9.25 
14 *376:72 *376:78 42.1786 
15 *376:78 *376:80 9.75 
16 *376:80 *2099:A2 36.7857 
17 *376:80 *2084:A2 43.2143 
18 *376:72 *2348:A2 29.3929 
19 *376:59 *2094:A2 17.7143 
*END

*D_NET *377 0.000175917
*CONN
*I *2087:A1 I *D NAND2_X1
*I *2084:ZN O *D NAND2_X1
*CAP
1 *2087:A1 6.92552e-05
2 *2084:ZN 6.92552e-05
3 *2087:A1 *1888:A1 0
4 *2087:A1 *2087:A2 8.43215e-07
5 *2087:A1 *378:67 3.65634e-05
*RES
1 *2084:ZN *2087:A1 18.25 
*END

*D_NET *378 0.00645271
*CONN
*I *2090:B2 I *D OAI21_X1
*I *2089:A1 I *D NAND2_X1
*I *2097:A1 I *D NAND2_X1
*I *2098:B2 I *D OAI21_X1
*I *2086:A1 I *D NAND2_X1
*I *2100:A1 I *D NAND2_X1
*I *2349:A1 I *D NAND2_X1
*I *2095:A1 I *D NAND2_X1
*I *2085:ZN O *D INV_X1
*CAP
1 *2090:B2 1.82585e-05
2 *2089:A1 4.98523e-05
3 *2097:A1 6.61462e-06
4 *2098:B2 4.62919e-05
5 *2086:A1 0
6 *2100:A1 0.000219739
7 *2349:A1 2.94382e-05
8 *2095:A1 0.00014621
9 *2085:ZN 6.14278e-05
10 *378:104 0.000156412
11 *378:78 0.00029374
12 *378:76 0.000329135
13 *378:74 0.000489784
14 *378:67 0.00066775
15 *378:63 0.000455486
16 *378:38 0.000866202
17 *378:10 0.000219831
18 *378:6 0.000474553
19 *2089:A1 *2053:B1 2.73726e-06
20 *2089:A1 *756:130 2.10291e-06
21 *2089:A1 *1319:25 6.92212e-05
22 *2090:B2 *1445:CK 2.59505e-05
23 *2090:B2 *2090:B1 9.67505e-07
24 *2095:A1 *1448:CK 0
25 *2095:A1 *1880:A1 1.58933e-05
26 *2095:A1 *436:52 6.60111e-05
27 *2095:A1 *1314:34 0
28 *2097:A1 *2098:A 4.32144e-07
29 *2097:A1 *1316:109 7.19036e-06
30 *2098:B2 *1442:CK 9.65425e-07
31 *2098:B2 *2098:A 1.40196e-06
32 *2098:B2 *2098:B1 5.35569e-05
33 *2100:A1 *2101:A1 1.86809e-06
34 *2100:A1 *2101:A2 2.39679e-06
35 *2100:A1 *595:16 0
36 *2100:A1 *595:22 0
37 *2349:A1 *2350:A2 7.19036e-06
38 *2349:A1 *436:52 7.19036e-06
39 *2349:A1 *1280:217 0
40 *378:6 *1448:CK 1.33236e-05
41 *378:6 *1314:34 5.75996e-06
42 *378:10 *1280:217 0
43 *378:38 *595:16 0
44 *378:63 *1881:A1 3.22075e-05
45 *378:63 *2039:A1 3.37286e-06
46 *378:63 *2040:A1 7.19036e-06
47 *378:63 *2040:A2 1.48003e-05
48 *378:67 *1888:A1 0
49 *378:67 *2087:A2 6.8024e-06
50 *378:74 *1429:CK 3.5108e-06
51 *378:74 *1888:A1 4.78395e-06
52 *378:74 *1925:A1 0
53 *378:74 *2053:A 0
54 *378:78 *1429:CK 1.09501e-05
55 *378:78 *2060:B1 0.000203907
56 *378:78 *2060:B2 0
57 *378:78 *2098:B1 2.94113e-05
58 *378:104 *1429:CK 3.36572e-05
59 *378:104 *1445:CK 7.09666e-06
60 *378:104 *1319:25 2.36876e-06
61 *1448:D *2349:A1 4.96057e-05
62 *1448:D *378:10 0.000132863
63 *1822:B2 *378:74 7.12794e-06
64 *1878:B2 *378:63 6.47929e-06
65 *1901:B2 *378:78 5.08499e-06
66 *1926:A2 *2100:A1 5.52959e-06
67 *2052:A2 *378:74 0
68 *2084:A2 *378:63 6.11769e-05
69 *2084:A2 *378:67 1.59582e-06
70 *2087:A1 *378:67 3.65634e-05
71 *2089:A2 *2089:A1 2.75346e-06
72 *2095:A2 *2095:A1 2.75346e-06
73 *2097:A2 *2097:A1 8.43215e-07
74 *2099:A2 *2100:A1 0.000489689
75 *2349:A2 *2095:A1 2.52965e-06
76 *106:8 *378:78 1.01834e-05
77 *121:12 *2100:A1 1.74984e-05
78 *127:8 *378:67 0
79 *127:8 *378:74 8.43215e-07
80 *147:8 *378:74 2.29935e-05
81 *376:72 *378:6 8.14615e-05
82 *376:78 *378:6 7.30645e-06
83 *376:78 *378:38 0.00014883
84 *376:80 *2100:A1 4.32319e-05
85 *376:80 *378:38 0.000140818
*RES
1 *2085:ZN *378:6 14.25 
2 *378:6 *378:10 12.0357 
3 *378:10 *2095:A1 27.1786 
4 *378:10 *2349:A1 13.7143 
5 *378:6 *378:38 49.3214 
6 *378:38 *2100:A1 42.0357 
7 *378:38 *378:63 37.2143 
8 *378:63 *378:67 19.7143 
9 *378:67 *2086:A1 5 
10 *378:67 *378:74 49.75 
11 *378:74 *378:76 5 
12 *378:76 *378:78 29.4286 
13 *378:78 *2098:B2 15.0714 
14 *378:78 *2097:A1 10.75 
15 *378:76 *378:104 16.1429 
16 *378:104 *2089:A1 22.3214 
17 *378:104 *2090:B2 7.75 
*END

*D_NET *379 9.84051e-05
*CONN
*I *2087:A2 I *D NAND2_X1
*I *2086:ZN O *D NAND2_X1
*CAP
1 *2087:A2 3.86656e-05
2 *2086:ZN 3.86656e-05
3 *2087:A2 *1888:A1 3.55053e-06
4 *2087:A1 *2087:A2 8.43215e-07
5 *127:8 *2087:A2 9.87781e-06
6 *378:67 *2087:A2 6.8024e-06
*RES
1 *2086:ZN *2087:A2 14.6786 
*END

*D_NET *380 9.2283e-05
*CONN
*I *2090:A I *D OAI21_X1
*I *2089:ZN O *D NAND2_X1
*CAP
1 *2090:A 1.98429e-05
2 *2089:ZN 1.98429e-05
3 *2090:A *1445:CK 1.52083e-06
4 *2090:A *2090:B1 6.8609e-06
5 *2090:A *756:130 2.94455e-05
6 *2090:A *837:305 0
7 *1445:D *2090:A 2.25089e-06
8 *2089:A2 *2090:A 1.25189e-05
*RES
1 *2089:ZN *2090:A 22.8571 
*END

*D_NET *381 6.38966e-05
*CONN
*I *2093:A I *D OAI21_X1
*I *2091:ZN O *D NAND2_X1
*CAP
1 *2093:A 2.54904e-05
2 *2091:ZN 2.54904e-05
3 *2093:A *2091:A1 2.16072e-07
4 *2093:A *2093:B1 1.26998e-05
*RES
1 *2091:ZN *2093:A 12.8571 
*END

*D_NET *382 7.6615e-05
*CONN
*I *2093:B1 I *D OAI21_X1
*I *2092:ZN O *D INV_X1
*CAP
1 *2093:B1 3.19576e-05
2 *2092:ZN 3.19576e-05
3 *2093:A *2093:B1 1.26998e-05
4 *124:8 *2093:B1 0
*RES
1 *2092:ZN *2093:B1 13.5357 
*END

*D_NET *383 0.000158648
*CONN
*I *2096:A1 I *D NAND2_X1
*I *2094:ZN O *D NAND2_X1
*CAP
1 *2096:A1 7.50396e-05
2 *2094:ZN 7.50396e-05
3 *2096:A1 *2094:A1 7.72537e-06
4 *2096:A1 *2096:A2 8.43215e-07
5 *2096:A1 *436:42 0
*RES
1 *2094:ZN *2096:A1 17.6786 
*END

*D_NET *384 0.000116583
*CONN
*I *2096:A2 I *D NAND2_X1
*I *2095:ZN O *D NAND2_X1
*CAP
1 *2096:A2 4.25414e-05
2 *2095:ZN 4.25414e-05
3 *2096:A2 *436:42 3.72101e-06
4 *2096:A2 *436:52 1.17623e-05
5 *1443:D *2096:A2 5.94167e-07
6 *2096:A1 *2096:A2 8.43215e-07
7 *123:12 *2096:A2 4.12911e-06
8 *150:10 *2096:A2 1.045e-05
*RES
1 *2095:ZN *2096:A2 24.8571 
*END

*D_NET *385 5.86977e-05
*CONN
*I *2098:A I *D OAI21_X1
*I *2097:ZN O *D NAND2_X1
*CAP
1 *2098:A 2.67547e-05
2 *2097:ZN 2.67547e-05
3 *2098:A *1316:109 9.57492e-07
4 *1904:A2 *2098:A 0
5 *2097:A1 *2098:A 4.32144e-07
6 *2097:A2 *2098:A 2.39679e-06
7 *2098:B2 *2098:A 1.40196e-06
8 *122:6 *2098:A 0
*RES
1 *2097:ZN *2098:A 12.8571 
*END

*D_NET *386 7.1642e-05
*CONN
*I *2101:A1 I *D NAND2_X1
*I *2099:ZN O *D NAND2_X1
*CAP
1 *2101:A1 2.96673e-05
2 *2099:ZN 2.96673e-05
3 *2101:A1 *2101:A2 8.43215e-07
4 *2101:A1 *1292:138 1.86809e-06
5 *2101:A1 *1313:37 0
6 *1926:A2 *2101:A1 0
7 *2099:A2 *2101:A1 7.72792e-06
8 *2100:A1 *2101:A1 1.86809e-06
*RES
1 *2099:ZN *2101:A1 13.3571 
*END

*D_NET *387 4.80705e-05
*CONN
*I *2101:A2 I *D NAND2_X1
*I *2100:ZN O *D NAND2_X1
*CAP
1 *2101:A2 1.58229e-05
2 *2100:ZN 1.58229e-05
3 *2101:A2 *2080:A1 0
4 *2101:A2 *609:187 2.55331e-06
5 *1441:D *2101:A2 1.06313e-05
6 *2100:A1 *2101:A2 2.39679e-06
7 *2101:A1 *2101:A2 8.43215e-07
*RES
1 *2100:ZN *2101:A2 12.1786 
*END

*D_NET *388 0.00317996
*CONN
*I *2159:A1 I *D NOR2_X2
*I *2122:A1 I *D NOR2_X1
*I *2103:A1 I *D NOR2_X2
*I *2140:A1 I *D NOR2_X2
*I *2102:ZN O *D NAND2_X1
*CAP
1 *2159:A1 8.25761e-05
2 *2122:A1 8.63717e-06
3 *2103:A1 0
4 *2140:A1 0
5 *2102:ZN 0
6 *388:32 0.000145497
7 *388:23 0.000173658
8 *388:12 0.000180457
9 *388:8 0.000283425
10 *388:6 0.000222342
11 *2122:A1 *845:168 0
12 *2159:A1 *1809:A2 2.78389e-06
13 *2159:A1 *1809:A3 4.17885e-06
14 *2159:A1 *2197:A2 0.000120658
15 *2159:A1 *852:36 0
16 *2159:A1 *910:10 0.000153157
17 *388:8 *1749:A1 1.81742e-05
18 *388:8 *1781:A1 2.26103e-05
19 *388:8 *884:8 0.000821861
20 *388:8 *1074:16 5.79042e-05
21 *388:8 *1087:16 0.000135737
22 *388:12 *2183:B 0
23 *388:12 *436:8 0
24 *388:23 *2140:A2 3.09411e-06
25 *388:23 *2183:B 0
26 *388:23 *412:6 9.01621e-05
27 *388:23 *632:19 6.15743e-05
28 *388:23 *910:10 0.000159394
29 *388:32 *2197:A2 3.02351e-05
30 *388:32 *632:19 8.8089e-05
31 *388:32 *910:10 0.000256735
32 *1992:A *388:8 2.3767e-06
33 *2026:A1 *388:8 5.46411e-05
*RES
1 *2102:ZN *388:6 10 
2 *388:6 *388:8 47.0714 
3 *388:8 *388:12 10.75 
4 *388:12 *2140:A1 5 
5 *388:12 *388:23 23.6429 
6 *388:23 *2103:A1 10 
7 *388:23 *388:32 13.8214 
8 *388:32 *2122:A1 10.75 
9 *388:32 *2159:A1 23.1429 
*END

*D_NET *389 0.0054264
*CONN
*I *2345:A2 I *D NAND2_X1
*I *2113:B2 I *D OAI21_X1
*I *2111:A2 I *D NAND2_X1
*I *2104:A2 I *D NAND2_X1
*I *2105:A I *D INV_X1
*I *2119:A2 I *D NAND2_X2
*I *2114:A2 I *D NAND2_X1
*I *2108:S I *D MUX2_X1
*I *2103:ZN O *D NOR2_X2
*CAP
1 *2345:A2 6.81973e-05
2 *2113:B2 2.86241e-05
3 *2111:A2 9.9085e-06
4 *2104:A2 0
5 *2105:A 0
6 *2119:A2 6.06818e-05
7 *2114:A2 2.51372e-05
8 *2108:S 0
9 *2103:ZN 0.000174408
10 *389:77 0.000200762
11 *389:50 0.000144209
12 *389:37 0.000354184
13 *389:33 0.000645809
14 *389:29 0.000712163
15 *389:25 0.000357943
16 *389:23 0.000407389
17 *389:6 0.000441696
18 *2113:B2 *424:25 1.36462e-05
19 *2114:A2 *1451:CK 2.99163e-05
20 *2114:A2 *2116:A2 2.08098e-06
21 *2114:A2 *2170:A1 6.18086e-05
22 *2114:A2 *1294:108 3.02351e-05
23 *2119:A2 *391:60 2.97112e-05
24 *2119:A2 *1292:85 1.72405e-05
25 *2119:A2 *1292:96 0.000197045
26 *2345:A2 *2255:A 0
27 *2345:A2 *595:68 4.11266e-05
28 *2345:A2 *1299:77 3.02351e-05
29 *2345:A2 *1299:90 5.41015e-05
30 *389:6 *1454:CK 0
31 *389:6 *2108:B 3.19164e-07
32 *389:6 *2183:B 7.00735e-05
33 *389:6 *1297:92 2.01347e-05
34 *389:6 *1306:14 0
35 *389:6 *1306:22 0
36 *389:23 *1454:CK 0
37 *389:23 *1785:A 3.21875e-05
38 *389:23 *1788:B1 1.01993e-05
39 *389:23 *2127:S 6.92191e-05
40 *389:23 *401:12 1.66988e-05
41 *389:23 *837:97 2.86475e-06
42 *389:23 *845:181 0.000196255
43 *389:23 *845:187 0
44 *389:23 *1297:98 1.90574e-06
45 *389:23 *1306:14 0
46 *389:23 *1306:135 1.94663e-05
47 *389:23 *1307:63 1.34605e-05
48 *389:25 *1857:B1 0
49 *389:25 *2131:B1 0
50 *389:25 *2255:A 0
51 *389:25 *595:68 0.000176296
52 *389:25 *845:187 0
53 *389:25 *1307:63 8.98274e-07
54 *389:29 *609:8 3.87635e-05
55 *389:29 *609:85 1.55606e-05
56 *389:29 *1299:90 0
57 *389:33 *1360:CK 1.28987e-05
58 *389:33 *2253:A1 2.28197e-05
59 *389:33 *2338:A1 0
60 *389:33 *2338:A2 0
61 *389:33 *424:25 0
62 *389:33 *609:14 0
63 *389:33 *609:20 6.98737e-05
64 *389:33 *1298:107 1.20843e-05
65 *389:37 *1451:CK 3.76648e-05
66 *389:37 *1780:B2 0
67 *389:37 *2107:A1 0
68 *389:37 *2116:A1 1.65202e-06
69 *389:37 *2116:A2 7.10056e-06
70 *389:37 *391:20 0.000106037
71 *389:37 *609:20 3.1943e-05
72 *389:37 *609:35 2.21916e-05
73 *389:37 *880:16 2.91282e-05
74 *389:50 *1916:B1 0
75 *389:50 *391:6 8.91306e-05
76 *389:50 *391:20 2.39679e-06
77 *389:50 *609:45 0
78 *389:77 *424:25 2.55605e-05
79 *389:77 *609:14 0
80 *389:77 *609:85 5.39412e-06
81 *389:77 *1299:90 0
82 *1350:D *389:6 6.48216e-07
83 *1455:D *389:33 3.82997e-06
84 *1786:B2 *389:23 3.5704e-05
85 *2115:A2 *389:37 2.39679e-06
86 *2115:A2 *389:50 1.43807e-05
87 *2127:A *389:23 3.2526e-05
88 *40:8 *389:33 0
89 *134:8 *389:23 6.32461e-06
90 *142:12 *389:23 3.21555e-05
*RES
1 *2103:ZN *389:6 24.25 
2 *389:6 *2108:S 5 
3 *389:6 *389:23 47.8214 
4 *389:23 *389:25 17.75 
5 *389:25 *389:29 22.8929 
6 *389:29 *389:33 49.25 
7 *389:33 *389:37 31.1786 
8 *389:37 *2114:A2 20 
9 *389:37 *389:50 10.25 
10 *389:50 *2119:A2 26.1071 
11 *389:50 *2105:A 5 
12 *389:33 *2104:A2 5 
13 *389:29 *389:77 21.8571 
14 *389:77 *2111:A2 6.25 
15 *389:77 *2113:B2 8.53572 
16 *389:25 *2345:A2 23.5714 
*END

*D_NET *390 8.20736e-05
*CONN
*I *2107:A1 I *D NAND2_X1
*I *2104:ZN O *D NAND2_X1
*CAP
1 *2107:A1 3.66157e-05
2 *2104:ZN 3.66157e-05
3 *2107:A1 *1780:B2 2.75346e-06
4 *2107:A1 *2107:A2 1.21774e-06
5 *2107:A1 *391:20 3.65322e-06
6 *2107:A1 *391:28 1.21774e-06
7 *389:37 *2107:A1 0
*RES
1 *2104:ZN *2107:A1 14.2143 
*END

*D_NET *391 0.00446298
*CONN
*I *2120:A1 I *D NAND2_X1
*I *2110:B2 I *D OAI21_X1
*I *2109:A1 I *D NAND2_X1
*I *2117:A1 I *D NAND2_X1
*I *2118:B2 I *D OAI21_X1
*I *2115:A1 I *D NAND2_X1
*I *2106:A1 I *D NAND2_X1
*I *2346:A1 I *D NAND2_X1
*I *2105:ZN O *D INV_X1
*CAP
1 *2120:A1 7.8275e-06
2 *2110:B2 0
3 *2109:A1 4.55199e-05
4 *2117:A1 0
5 *2118:B2 4.87171e-05
6 *2115:A1 0
7 *2106:A1 8.4535e-06
8 *2346:A1 0.000235294
9 *2105:ZN 0.00024008
10 *391:88 5.36701e-05
11 *391:70 6.37974e-05
12 *391:68 0.00029715
13 *391:66 0.000478141
14 *391:60 0.00038893
15 *391:28 0.000418817
16 *391:20 0.000473832
17 *391:6 0.000345054
18 *2106:A1 *1455:CK 2.16668e-07
19 *2106:A1 *1866:B1 0
20 *2106:A1 *1316:60 1.76665e-06
21 *2109:A1 *2110:A 5.53343e-05
22 *2118:B2 *2118:A 3.08624e-05
23 *2118:B2 *2118:B1 6.49787e-06
24 *2120:A1 *1916:B1 0
25 *2120:A1 *1917:A1 2.16072e-07
26 *2346:A1 *2254:A 2.35353e-05
27 *2346:A1 *2257:B1 0
28 *2346:A1 *2343:A1 7.09666e-06
29 *2346:A1 *487:10 0
30 *2346:A1 *595:68 6.94585e-06
31 *2346:A1 *595:76 0
32 *2346:A1 *1303:331 9.662e-05
33 *391:6 *609:45 1.24656e-05
34 *391:20 *1455:CK 4.12459e-06
35 *391:20 *1780:A2 4.32144e-07
36 *391:20 *1780:B1 2.9243e-05
37 *391:20 *1780:B2 3.78407e-05
38 *391:20 *2116:A2 7.10056e-06
39 *391:20 *609:35 0
40 *391:20 *880:16 1.32323e-05
41 *391:20 *1316:60 6.54825e-05
42 *391:28 *1455:CK 1.46795e-05
43 *391:28 *1777:B1 2.96272e-05
44 *391:28 *2107:A2 1.22212e-05
45 *391:28 *1298:97 3.69307e-05
46 *391:28 *1298:107 6.8329e-05
47 *391:60 *1916:B1 0
48 *391:60 *1919:A1 0
49 *391:60 *593:89 2.42701e-05
50 *391:60 *1292:96 2.04312e-06
51 *391:66 *593:89 2.7613e-05
52 *391:66 *593:126 0.000225633
53 *391:66 *609:56 0
54 *391:68 *1828:A 1.25215e-05
55 *391:68 *1832:A1 8.48377e-05
56 *391:68 *1910:A1 0
57 *391:68 *1911:A2 2.01083e-05
58 *391:68 *1911:B2 0
59 *391:68 *2110:B1 1.88066e-05
60 *391:68 *593:126 2.8705e-06
61 *391:68 *593:135 1.68643e-06
62 *391:68 *609:56 0
63 *1453:D *391:68 3.90891e-05
64 *1453:D *391:88 1.76665e-06
65 *1455:D *391:28 3.32271e-06
66 *1830:B2 *391:68 0
67 *1908:A2 *391:68 3.04174e-05
68 *2107:A1 *391:20 3.65322e-06
69 *2107:A1 *391:28 1.21774e-06
70 *2115:A2 *391:6 1.54649e-06
71 *2119:A2 *391:60 2.97112e-05
72 *2120:A2 *2120:A1 8.43215e-07
73 *2120:A2 *391:66 3.6949e-05
74 *2125:A2 *391:28 1.33526e-05
75 *2255:B2 *2346:A1 1.21774e-06
76 *2346:A2 *2346:A1 8.43215e-07
77 *130:6 *391:68 2.16072e-07
78 *131:8 *391:6 7.16188e-07
79 *131:8 *391:20 1.40785e-05
80 *141:8 *391:68 0
81 *389:37 *391:20 0.000106037
82 *389:50 *391:6 8.91306e-05
83 *389:50 *391:20 2.39679e-06
*RES
1 *2105:ZN *391:6 13.75 
2 *391:6 *391:20 46 
3 *391:20 *391:28 34.0357 
4 *391:28 *2346:A1 32.75 
5 *391:20 *2106:A1 5.92857 
6 *391:6 *2115:A1 5 
7 *2105:ZN *391:60 35.4643 
8 *391:60 *391:66 27.0714 
9 *391:66 *391:68 32.1429 
10 *391:68 *391:70 1.60714 
11 *391:70 *2118:B2 21.3571 
12 *391:70 *2117:A1 5 
13 *391:68 *391:88 0.928572 
14 *391:88 *2109:A1 20.6786 
15 *391:88 *2110:B2 5 
16 *391:60 *2120:A1 6.25 
*END

*D_NET *392 0.000116904
*CONN
*I *2107:A2 I *D NAND2_X1
*I *2106:ZN O *D NAND2_X1
*CAP
1 *2107:A2 3.45186e-05
2 *2106:ZN 3.45186e-05
3 *2107:A2 *1298:107 1.5601e-05
4 *1455:D *2107:A2 7.72792e-06
5 *2106:A2 *2107:A2 1.10989e-05
6 *2107:A1 *2107:A2 1.21774e-06
7 *391:28 *2107:A2 1.22212e-05
*RES
1 *2106:ZN *2107:A2 24.8929 
*END

*D_NET *393 0.000112147
*CONN
*I *2110:A I *D OAI21_X1
*I *2109:ZN O *D NAND2_X1
*CAP
1 *2110:A 2.70999e-05
2 *2109:ZN 2.70999e-05
3 *2110:A *2110:B1 2.39679e-06
4 *2109:A1 *2110:A 5.53343e-05
5 *2109:A2 *2110:A 2.16072e-07
6 *130:6 *2110:A 0
*RES
1 *2109:ZN *2110:A 23.7143 
*END

*D_NET *394 0.00018372
*CONN
*I *2113:A I *D OAI21_X1
*I *2111:ZN O *D NAND2_X1
*CAP
1 *2113:A 1.75228e-05
2 *2111:ZN 1.75228e-05
3 *2113:A *1858:A 6.89712e-05
4 *2113:A *2113:B1 2.39679e-06
5 *2113:A *424:25 1.68643e-06
6 *2113:A *1295:134 1.77822e-05
7 *2113:A *1295:147 5.06473e-05
8 *2113:A *1299:102 7.19036e-06
*RES
1 *2111:ZN *2113:A 24.3929 
*END

*D_NET *395 0.0002554
*CONN
*I *2113:B1 I *D OAI21_X1
*I *2112:ZN O *D INV_X1
*CAP
1 *2113:B1 4.19474e-05
2 *2112:ZN 4.19474e-05
3 *2113:B1 *1452:CK 3.82217e-05
4 *2113:B1 *1858:B1 3.01743e-06
5 *2113:B1 *424:25 8.44023e-06
6 *2113:B1 *1295:147 7.58442e-05
7 *2113:B1 *1299:102 1.68643e-06
8 *1860:B2 *2113:B1 4.18985e-05
9 *2113:A *2113:B1 2.39679e-06
*RES
1 *2112:ZN *2113:B1 27.4286 
*END

*D_NET *396 0.000175753
*CONN
*I *2116:A1 I *D NAND2_X1
*I *2114:ZN O *D NAND2_X1
*CAP
1 *2116:A1 6.15478e-05
2 *2114:ZN 6.15478e-05
3 *2116:A1 *1451:CK 5.07067e-06
4 *2116:A1 *2116:A2 2.87396e-05
5 *1451:D *2116:A1 1.63523e-05
6 *2115:A2 *2116:A1 8.43215e-07
7 *389:37 *2116:A1 1.65202e-06
*RES
1 *2114:ZN *2116:A1 17.5357 
*END

*D_NET *397 0.000234097
*CONN
*I *2116:A2 I *D NAND2_X1
*I *2115:ZN O *D NAND2_X1
*CAP
1 *2116:A2 4.19217e-05
2 *2115:ZN 4.19217e-05
3 *2116:A2 *1451:CK 4.43868e-06
4 *2116:A2 *1868:B2 6.73899e-05
5 *2116:A2 *2114:A1 2.39679e-06
6 *2116:A2 *2170:A1 1.56073e-06
7 *2116:A2 *593:89 0
8 *1451:D *2116:A2 2.94455e-05
9 *2114:A2 *2116:A2 2.08098e-06
10 *2116:A1 *2116:A2 2.87396e-05
11 *389:37 *2116:A2 7.10056e-06
12 *391:20 *2116:A2 7.10056e-06
*RES
1 *2115:ZN *2116:A2 26.6429 
*END

*D_NET *398 0.000125688
*CONN
*I *2118:A I *D OAI21_X1
*I *2117:ZN O *D NAND2_X1
*CAP
1 *2118:A 4.07966e-05
2 *2117:ZN 4.07966e-05
3 *2118:A *2118:B1 1.32323e-05
4 *1908:A2 *2118:A 0
5 *2118:B2 *2118:A 3.08624e-05
*RES
1 *2117:ZN *2118:A 25.5714 
*END

*D_NET *399 0.000370058
*CONN
*I *2121:A1 I *D NAND2_X2
*I *2119:ZN O *D NAND2_X2
*CAP
1 *2121:A1 0.000110898
2 *2119:ZN 0.000110898
3 *2121:A1 *2121:A2 2.39679e-06
4 *2121:A1 *593:89 0.000145864
5 *2121:A1 *595:98 0
6 *1449:D *2121:A1 0
*RES
1 *2119:ZN *2121:A1 24.6786 
*END

*D_NET *400 0.0001823
*CONN
*I *2121:A2 I *D NAND2_X2
*I *2120:ZN O *D NAND2_X1
*CAP
1 *2121:A2 2.21932e-05
2 *2120:ZN 2.21932e-05
3 *2121:A2 *1918:A2 6.68482e-05
4 *2121:A2 *593:89 1.68643e-06
5 *1449:D *2121:A2 9.62051e-07
6 *1917:A2 *2121:A2 6.60203e-05
7 *2121:A1 *2121:A2 2.39679e-06
*RES
1 *2120:ZN *2121:A2 24.3929 
*END

*D_NET *401 0.00388662
*CONN
*I *2130:A2 I *D NAND2_X1
*I *2123:A2 I *D NAND2_X1
*I *2124:A I *D INV_X1
*I *2137:A2 I *D NAND2_X1
*I *2132:A2 I *D NAND2_X1
*I *2342:A2 I *D NAND2_X1
*I *2131:B2 I *D OAI21_X1
*I *2127:S I *D MUX2_X1
*I *2122:ZN O *D NOR2_X1
*CAP
1 *2130:A2 2.5463e-05
2 *2123:A2 2.14476e-05
3 *2124:A 2.14476e-05
4 *2137:A2 8.33845e-05
5 *2132:A2 0
6 *2342:A2 3.23706e-05
7 *2131:B2 8.15016e-06
8 *2127:S 1.16089e-05
9 *2122:ZN 0.000179423
10 *401:68 0.000242322
11 *401:61 0.000312328
12 *401:59 0.000530081
13 *401:44 0.000511367
14 *401:42 0.000180539
15 *401:33 0.000250708
16 *401:12 0.000423714
17 *2127:S *1788:B1 5.11191e-06
18 *2130:A2 *2130:A1 8.43215e-07
19 *2130:A2 *2131:A 2.39679e-06
20 *2130:A2 *1307:80 2.23871e-06
21 *2137:A2 *1457:CK 5.07562e-06
22 *2137:A2 *403:50 3.51992e-06
23 *2137:A2 *595:98 0
24 *2137:A2 *1292:74 3.02351e-05
25 *2137:A2 *1292:85 6.78899e-05
26 *2342:A2 *1299:64 3.02372e-05
27 *2342:A2 *1299:77 3.12741e-05
28 *401:12 *2127:B 4.21607e-06
29 *401:12 *845:168 0
30 *401:12 *845:181 0
31 *401:12 *1297:106 3.2074e-06
32 *401:12 *1303:268 4.32144e-07
33 *401:33 *1462:CK 1.74579e-05
34 *401:33 *1785:A 0
35 *401:33 *2131:A 5.34233e-06
36 *401:33 *2672:A 0
37 *401:33 *598:73 5.48206e-06
38 *401:33 *598:82 1.12486e-05
39 *401:33 *845:181 0
40 *401:33 *1295:134 0
41 *401:33 *1303:268 1.55401e-05
42 *401:33 *1306:12 0
43 *401:33 *1306:14 0
44 *401:33 *1307:26 4.45934e-05
45 *401:33 *1307:63 0
46 *401:42 *2131:A 1.21774e-06
47 *401:44 *2345:A1 0
48 *401:44 *1307:80 0
49 *401:59 *1464:CK 0.000155996
50 *401:59 *2343:A1 0
51 *401:59 *2344:A1 5.27445e-05
52 *401:59 *2347:A1 0
53 *401:59 *595:68 0
54 *401:59 *595:76 4.79202e-06
55 *401:59 *1307:80 0
56 *401:61 *1464:CK 4.59295e-05
57 *401:61 *1777:B1 2.61827e-06
58 *401:61 *2132:A1 8.43215e-07
59 *401:61 *2134:A2 7.16188e-07
60 *401:61 *595:76 7.35445e-06
61 *401:61 *1310:42 3.50594e-05
62 *401:68 *1459:CK 2.36158e-05
63 *401:68 *2132:A1 4.4751e-05
64 *401:68 *2134:A2 6.1617e-06
65 *401:68 *595:98 0
66 *401:68 *1310:8 0
67 *401:68 *1310:12 0
68 *1456:D *401:59 9.80831e-06
69 *1459:D *401:68 0
70 *1460:D *2130:A2 1.18547e-06
71 *1460:D *401:33 1.57087e-05
72 *1462:D *401:33 4.21928e-05
73 *1785:B2 *401:12 0.000152053
74 *2127:A *2127:S 5.59765e-05
75 *2127:A *401:12 1.2453e-05
76 *2149:A *401:33 0
77 *2343:A2 *401:59 7.87454e-06
78 *30:8 *401:12 9.57492e-07
79 *389:23 *2127:S 6.92191e-05
80 *389:23 *401:12 1.66988e-05
*RES
1 *2122:ZN *401:12 31.6072 
2 *401:12 *2127:S 13.6429 
3 *401:12 *401:33 32.6072 
4 *401:33 *2131:B2 5.92857 
5 *401:33 *401:42 1.25 
6 *401:42 *401:44 14.25 
7 *401:44 *2342:A2 19.3929 
8 *401:44 *401:59 39.75 
9 *401:59 *401:61 20.25 
10 *401:61 *2132:A2 5 
11 *401:61 *401:68 15.75 
12 *401:68 *2137:A2 24.75 
13 *401:68 *2124:A 7.28572 
14 *401:59 *2123:A2 7.28572 
15 *401:42 *2130:A2 8.53572 
*END

*D_NET *402 7.58203e-05
*CONN
*I *2126:A1 I *D NAND2_X1
*I *2123:ZN O *D NAND2_X1
*CAP
1 *2126:A1 3.10546e-05
2 *2123:ZN 3.10546e-05
3 *2126:A1 *2123:A1 7.16188e-07
4 *2126:A1 *2343:A1 5.52959e-06
5 *2126:A1 *595:76 7.46544e-06
*RES
1 *2123:ZN *2126:A1 13.5357 
*END

*D_NET *403 0.00255146
*CONN
*I *2129:B2 I *D OAI21_X1
*I *2136:B2 I *D OAI21_X1
*I *2135:A1 I *D NAND2_X1
*I *2128:A1 I *D NAND2_X1
*I *2138:A1 I *D NAND2_X1
*I *2133:A1 I *D NAND2_X1
*I *2125:A1 I *D NAND2_X1
*I *2343:A1 I *D NAND2_X1
*I *2124:ZN O *D INV_X1
*CAP
1 *2129:B2 0
2 *2136:B2 3.26984e-05
3 *2135:A1 0
4 *2128:A1 2.29264e-05
5 *2138:A1 8.71307e-06
6 *2133:A1 0
7 *2125:A1 8.71307e-06
8 *2343:A1 0.000113257
9 *2124:ZN 0.000254791
10 *403:76 4.16716e-05
11 *403:74 1.30339e-05
12 *403:59 0.000320057
13 *403:50 0.000445934
14 *403:14 0.000353267
15 *403:12 0.000341936
16 *2128:A1 *922:18 1.36362e-05
17 *2128:A1 *922:22 3.07768e-05
18 *2128:A1 *1311:53 7.19036e-06
19 *2136:B2 *2129:B1 2.16072e-07
20 *2136:B2 *2136:A 6.82202e-07
21 *2136:B2 *2136:B1 3.09143e-06
22 *2136:B2 *922:18 1.20697e-05
23 *2136:B2 *998:12 8.00929e-05
24 *2343:A1 *1777:B1 2.50882e-05
25 *2343:A1 *595:76 7.76441e-05
26 *2343:A1 *1303:331 9.66467e-08
27 *2343:A1 *1303:348 3.62969e-06
28 *403:12 *595:89 0
29 *403:12 *595:98 3.71274e-05
30 *403:12 *964:12 1.32292e-05
31 *403:12 *1034:10 0
32 *403:12 *1303:740 8.99603e-06
33 *403:12 *1303:755 4.91141e-06
34 *403:12 *1303:761 0
35 *403:14 *1463:CK 1.32348e-05
36 *403:14 *2123:A1 0
37 *403:14 *595:76 0
38 *403:14 *595:89 0
39 *403:14 *1303:348 1.12748e-05
40 *403:14 *1303:740 4.4211e-05
41 *403:50 *1457:CK 0
42 *403:50 *1303:761 2.49176e-05
43 *403:59 *1918:A2 0
44 *403:59 *595:107 0
45 *403:59 *1303:761 0
46 *403:59 *1311:32 0
47 *403:59 *1311:47 0
48 *403:59 *1311:53 0
49 *403:74 *2129:B1 8.43215e-07
50 *1461:D *2136:B2 8.43215e-07
51 *1461:D *403:76 0
52 *1463:D *403:14 7.26174e-06
53 *1907:B2 *2128:A1 8.16741e-05
54 *1907:B2 *2136:B2 1.66988e-05
55 *2126:A1 *2343:A1 5.52959e-06
56 *2128:A2 *2128:A1 8.43215e-07
57 *2135:A2 *2136:B2 1.72405e-05
58 *2137:A2 *403:50 3.51992e-06
59 *2138:A2 *403:59 1.28574e-05
60 *2343:A2 *2343:A1 8.43215e-07
61 *2346:A1 *2343:A1 7.09666e-06
62 *138:12 *2136:B2 2.39679e-06
63 *138:12 *403:59 2.3358e-05
64 *138:12 *403:74 1.03048e-06
65 *138:12 *403:76 3.09525e-07
66 *401:59 *2343:A1 0
*RES
1 *2124:ZN *403:12 27.5714 
2 *403:12 *403:14 25.75 
3 *403:14 *2343:A1 29.1429 
4 *403:14 *2125:A1 5.92857 
5 *403:12 *2133:A1 5 
6 *2124:ZN *403:50 20.5357 
7 *403:50 *2138:A1 5.92857 
8 *403:50 *403:59 29.75 
9 *403:59 *2128:A1 20.0714 
10 *403:59 *403:74 0.75 
11 *403:74 *403:76 0.928572 
12 *403:76 *2135:A1 5 
13 *403:76 *2136:B2 20.8214 
14 *403:74 *2129:B2 5 
*END

*D_NET *404 0.000121122
*CONN
*I *2126:A2 I *D NAND2_X1
*I *2125:ZN O *D NAND2_X1
*CAP
1 *2126:A2 3.27016e-05
2 *2125:ZN 3.27016e-05
3 *2126:A2 *1777:B1 2.39144e-05
4 *2126:A2 *1298:97 2.07052e-05
5 *2125:A2 *2126:A2 1.10989e-05
*RES
1 *2125:ZN *2126:A2 25.1429 
*END

*D_NET *405 8.19401e-05
*CONN
*I *2129:A I *D OAI21_X1
*I *2128:ZN O *D NAND2_X1
*CAP
1 *2129:A 2.81998e-05
2 *2128:ZN 2.81998e-05
3 *2129:A *2129:B1 1.74934e-05
4 *2129:A *1311:53 3.19164e-07
5 *2128:A2 *2129:A 7.72792e-06
*RES
1 *2128:ZN *2129:A 13.3571 
*END

*D_NET *406 0.00010678
*CONN
*I *2131:A I *D OAI21_X1
*I *2130:ZN O *D NAND2_X1
*CAP
1 *2131:A 3.33779e-05
2 *2130:ZN 3.33779e-05
3 *2131:A *2130:A1 2.16072e-07
4 *2131:A *1295:124 3.0203e-05
5 *2131:A *1295:134 6.48216e-07
6 *1860:B2 *2131:A 0
7 *2130:A2 *2131:A 2.39679e-06
8 *401:33 *2131:A 5.34233e-06
9 *401:42 *2131:A 1.21774e-06
*RES
1 *2130:ZN *2131:A 24.1071 
*END

*D_NET *407 3.47645e-05
*CONN
*I *2134:A1 I *D NAND2_X1
*I *2132:ZN O *D NAND2_X1
*CAP
1 *2134:A1 1.73822e-05
2 *2132:ZN 1.73822e-05
3 *2134:A1 *2134:A2 0
*RES
1 *2132:ZN *2134:A1 21.6071 
*END

*D_NET *408 0.000261026
*CONN
*I *2134:A2 I *D NAND2_X1
*I *2133:ZN O *D NAND2_X1
*CAP
1 *2134:A2 0.000120187
2 *2133:ZN 0.000120187
3 *2134:A2 *1310:25 0
4 *2134:A2 *1310:38 0
5 *1459:D *2134:A2 9.64489e-06
6 *1867:A2 *2134:A2 4.12911e-06
7 *2134:A1 *2134:A2 0
8 *401:61 *2134:A2 7.16188e-07
9 *401:68 *2134:A2 6.1617e-06
*RES
1 *2133:ZN *2134:A2 32.1429 
*END

*D_NET *409 6.60335e-05
*CONN
*I *2136:A I *D OAI21_X1
*I *2135:ZN O *D NAND2_X1
*CAP
1 *2136:A 2.58057e-05
2 *2135:ZN 2.58057e-05
3 *2136:A *2136:B1 1.25189e-05
4 *2136:B2 *2136:A 6.82202e-07
5 *138:12 *2136:A 1.221e-06
*RES
1 *2135:ZN *2136:A 12.8571 
*END

*D_NET *410 0.000169694
*CONN
*I *2139:A1 I *D NAND2_X1
*I *2137:ZN O *D NAND2_X1
*CAP
1 *2139:A1 7.55233e-05
2 *2137:ZN 7.55233e-05
3 *2139:A1 *1457:CK 1.86478e-05
4 *2139:A1 *1311:8 0
5 *2139:A1 *1311:17 0
*RES
1 *2137:ZN *2139:A1 18.25 
*END

*D_NET *411 0.000107428
*CONN
*I *2139:A2 I *D NAND2_X1
*I *2138:ZN O *D NAND2_X1
*CAP
1 *2139:A2 5.37139e-05
2 *2138:ZN 5.37139e-05
*RES
1 *2138:ZN *2139:A2 25 
*END

*D_NET *412 0.00365841
*CONN
*I *2145:S I *D MUX2_X1
*I *2339:A2 I *D NAND2_X1
*I *2151:A2 I *D NAND2_X1
*I *2156:A2 I *D NAND2_X1
*I *2141:A2 I *D NAND2_X1
*I *2142:A I *D INV_X1
*I *2148:A2 I *D NAND2_X1
*I *2150:B2 I *D OAI21_X1
*I *2140:ZN O *D NOR2_X2
*CAP
1 *2145:S 2.78148e-05
2 *2339:A2 8.71307e-06
3 *2151:A2 2.09489e-05
4 *2156:A2 0.000131262
5 *2141:A2 3.34764e-05
6 *2142:A 0
7 *2148:A2 0
8 *2150:B2 8.71307e-06
9 *2140:ZN 0.00012706
10 *412:58 0.00038921
11 *412:43 0.000359756
12 *412:32 0.000455497
13 *412:26 0.00055955
14 *412:17 0.00023529
15 *412:8 0.000397937
16 *412:6 0.00049343
17 *2141:A2 *2144:A1 4.24402e-05
18 *2141:A2 *1298:74 4.44127e-06
19 *2141:A2 *1298:80 4.9678e-06
20 *2151:A2 *2151:A1 2.16072e-07
21 *2151:A2 *414:33 0
22 *2156:A2 *2151:A1 0
23 *2156:A2 *2153:A2 1.25189e-05
24 *2156:A2 *2156:A1 2.43548e-06
25 *2156:A2 *1292:70 3.8744e-05
26 *412:8 *1454:CK 3.87655e-05
27 *412:8 *2145:B 0
28 *412:8 *2150:A 1.21774e-06
29 *412:17 *2148:A1 3.09411e-06
30 *412:17 *2150:A 1.64551e-05
31 *412:26 *2148:A1 1.21774e-06
32 *412:26 *1299:60 0
33 *412:32 *2340:A1 0
34 *412:32 *2341:A1 1.95864e-05
35 *412:32 *2341:A2 0
36 *412:32 *1299:60 7.16188e-07
37 *412:43 *2144:A1 1.72426e-05
38 *412:43 *2144:A2 1.90574e-06
39 *412:43 *414:22 8.07507e-05
40 *412:43 *1298:80 0
41 *412:58 *2144:A1 7.72792e-06
42 *412:58 *2144:A2 7.72537e-06
43 *412:58 *414:33 0
44 *412:58 *1298:80 3.37286e-06
45 *1454:D *412:8 7.72792e-06
46 *2143:A2 *412:43 6.32202e-06
47 *388:23 *412:6 9.01621e-05
*RES
1 *2140:ZN *412:6 19.25 
2 *412:6 *412:8 35.25 
3 *412:8 *2150:B2 5.92857 
4 *412:8 *412:17 5.75 
5 *412:17 *2148:A2 5 
6 *412:17 *412:26 18.3929 
7 *412:26 *412:32 38.9643 
8 *412:32 *2142:A 5 
9 *412:32 *412:43 16.5357 
10 *412:43 *2141:A2 14.2143 
11 *412:43 *412:58 28.75 
12 *412:58 *2156:A2 19.5357 
13 *412:58 *2151:A2 8.17857 
14 *412:26 *2339:A2 5.92857 
15 *412:6 *2145:S 7.96429 
*END

*D_NET *413 0.000137945
*CONN
*I *2144:A1 I *D NAND2_X1
*I *2141:ZN O *D NAND2_X1
*CAP
1 *2144:A1 2.07208e-05
2 *2141:ZN 2.07208e-05
3 *2144:A1 *2144:A2 1.045e-05
4 *2144:A1 *414:22 1.40196e-06
5 *2144:A1 *866:8 0
6 *2144:A1 *1298:74 1.72405e-05
7 *2141:A2 *2144:A1 4.24402e-05
8 *412:43 *2144:A1 1.72426e-05
9 *412:58 *2144:A1 7.72792e-06
*RES
1 *2141:ZN *2144:A1 23.7143 
*END

*D_NET *414 0.00342726
*CONN
*I *2147:B2 I *D OAI21_X1
*I *2146:A1 I *D NAND2_X1
*I *2155:B2 I *D OAI21_X1
*I *2154:A1 I *D NAND2_X1
*I *2157:A1 I *D NAND2_X1
*I *2152:A1 I *D NAND2_X1
*I *2143:A1 I *D NAND2_X1
*I *2340:A1 I *D NAND2_X1
*I *2142:ZN O *D INV_X1
*CAP
1 *2147:B2 6.83478e-06
2 *2146:A1 3.50604e-05
3 *2155:B2 3.76481e-05
4 *2154:A1 0
5 *2157:A1 0
6 *2152:A1 0
7 *2143:A1 0
8 *2340:A1 0.000227973
9 *2142:ZN 0.000297369
10 *414:77 9.97537e-05
11 *414:60 0.000103048
12 *414:51 0.000427253
13 *414:42 0.000740009
14 *414:33 0.000590851
15 *414:22 0.00033995
16 *2146:A1 *1346:CK 5.38865e-06
17 *2147:B2 *2147:B1 3.09411e-06
18 *2155:B2 *2155:A 6.82202e-07
19 *2155:B2 *2155:B1 1.21774e-06
20 *2155:B2 *811:61 1.9777e-05
21 *2340:A1 *2341:A2 7.40507e-06
22 *2340:A1 *1294:82 0
23 *414:22 *1294:82 0
24 *414:33 *2151:A1 1.21774e-06
25 *414:33 *1294:82 0
26 *414:42 *2151:A1 6.82202e-07
27 *414:42 *2156:A1 0
28 *414:42 *2158:A1 0
29 *414:42 *2158:A2 0
30 *414:42 *1292:70 0
31 *414:51 *2147:B1 0
32 *414:51 *2155:B1 0
33 *414:51 *756:69 0
34 *414:51 *811:55 0
35 *414:60 *2155:A 0
36 *414:77 *2147:B1 4.64697e-05
37 *1346:D *2155:B2 8.14241e-05
38 *1346:D *414:77 7.12091e-05
39 *1347:D *414:33 0
40 *1349:D *2146:A1 6.74689e-05
41 *1351:D *414:33 0
42 *1352:D *2340:A1 0
43 *2144:A1 *414:22 1.40196e-06
44 *2146:A2 *2146:A1 1.39527e-05
45 *2151:A2 *414:33 0
46 *2154:A2 *2146:A1 0
47 *2154:A2 *2155:B2 3.02351e-05
48 *2154:A2 *414:77 8.91334e-05
49 *412:32 *2340:A1 0
50 *412:43 *414:22 8.07507e-05
51 *412:58 *414:33 0
*RES
1 *2142:ZN *2340:A1 32.8214 
2 *2142:ZN *414:22 13.75 
3 *414:22 *2143:A1 5 
4 *414:22 *414:33 26.6072 
5 *414:33 *2152:A1 5 
6 *414:33 *414:42 31.1786 
7 *414:42 *2157:A1 5 
8 *414:42 *414:51 41.1786 
9 *414:51 *2154:A1 5 
10 *414:51 *414:60 5.75 
11 *414:60 *2155:B2 16.4286 
12 *414:60 *414:77 14.75 
13 *414:77 *2146:A1 20.0714 
14 *414:77 *2147:B2 5.75 
*END

*D_NET *415 0.000118239
*CONN
*I *2144:A2 I *D NAND2_X1
*I *2143:ZN O *D NAND2_X1
*CAP
1 *2144:A2 2.19283e-05
2 *2143:ZN 2.19283e-05
3 *2144:A2 *866:8 3.34509e-06
4 *2144:A2 *1298:80 2.39679e-06
5 *1351:D *2144:A2 3.07768e-05
6 *2143:A2 *2144:A2 1.77822e-05
7 *2144:A1 *2144:A2 1.045e-05
8 *412:43 *2144:A2 1.90574e-06
9 *412:58 *2144:A2 7.72537e-06
*RES
1 *2143:ZN *2144:A2 23.7143 
*END

*D_NET *416 6.19916e-05
*CONN
*I *2147:A I *D OAI21_X1
*I *2146:ZN O *D NAND2_X1
*CAP
1 *2147:A 2.8599e-05
2 *2146:ZN 2.8599e-05
3 *2147:A *2118:B1 0
4 *2147:A *2147:B1 2.39679e-06
5 *2146:A2 *2147:A 2.39679e-06
*RES
1 *2146:ZN *2147:A 13.6071 
*END

*D_NET *417 0.000102454
*CONN
*I *2150:A I *D OAI21_X1
*I *2148:ZN O *D NAND2_X1
*CAP
1 *2150:A 4.23905e-05
2 *2148:ZN 4.23905e-05
3 *1348:D *2150:A 0
4 *412:8 *2150:A 1.21774e-06
5 *412:17 *2150:A 1.64551e-05
*RES
1 *2148:ZN *2150:A 14.6786 
*END

*D_NET *418 0.000279483
*CONN
*I *2150:B1 I *D OAI21_X1
*I *2149:ZN O *D INV_X1
*CAP
1 *2150:B1 0.000118729
2 *2149:ZN 0.000118729
3 *2150:B1 *1454:CK 0
4 *2150:B1 *1295:124 0
5 *2150:B1 *1307:30 0
6 *1348:D *2150:B1 3.09002e-05
7 *1860:B2 *2150:B1 4.80378e-06
8 *28:8 *2150:B1 6.32202e-06
*RES
1 *2149:ZN *2150:B1 33.8214 
*END

*D_NET *419 8.17171e-05
*CONN
*I *2153:A1 I *D NAND2_X1
*I *2151:ZN O *D NAND2_X1
*CAP
1 *2153:A1 1.41155e-05
2 *2151:ZN 1.41155e-05
3 *2153:A1 *2153:A2 1.43544e-05
4 *2153:A1 *1292:70 1.77822e-05
5 *1347:D *2153:A1 2.13496e-05
*RES
1 *2151:ZN *2153:A1 22.9643 
*END

*D_NET *420 0.000214988
*CONN
*I *2153:A2 I *D NAND2_X1
*I *2152:ZN O *D NAND2_X1
*CAP
1 *2153:A2 5.70365e-05
2 *2152:ZN 5.70365e-05
3 *2153:A2 *2151:A1 3.02372e-05
4 *2153:A2 *1292:70 4.18985e-05
5 *1347:D *2153:A2 1.90574e-06
6 *2153:A1 *2153:A2 1.43544e-05
7 *2156:A2 *2153:A2 1.25189e-05
*RES
1 *2152:ZN *2153:A2 27.6071 
*END

*D_NET *421 8.5518e-05
*CONN
*I *2155:A I *D OAI21_X1
*I *2154:ZN O *D NAND2_X1
*CAP
1 *2155:A 4.10411e-05
2 *2154:ZN 4.10411e-05
3 *2155:A *2155:B1 2.75346e-06
4 *2155:B2 *2155:A 6.82202e-07
5 *414:60 *2155:A 0
*RES
1 *2154:ZN *2155:A 14.2143 
*END

*D_NET *422 0.000309237
*CONN
*I *2158:A1 I *D NAND2_X1
*I *2156:ZN O *D NAND2_X1
*CAP
1 *2158:A1 0.00015401
2 *2156:ZN 0.00015401
3 *2158:A1 *2158:A2 1.21774e-06
4 *414:42 *2158:A1 0
*RES
1 *2156:ZN *2158:A1 25.3571 
*END

*D_NET *423 0.00019529
*CONN
*I *2158:A2 I *D NAND2_X1
*I *2157:ZN O *D NAND2_X1
*CAP
1 *2158:A2 9.16467e-05
2 *2157:ZN 9.16467e-05
3 *1345:D *2158:A2 4.56654e-06
4 *2157:A2 *2158:A2 6.21255e-06
5 *2158:A1 *2158:A2 1.21774e-06
6 *414:42 *2158:A2 0
*RES
1 *2157:ZN *2158:A2 29.6071 
*END

*D_NET *424 0.00457712
*CONN
*I *2167:A2 I *D NAND2_X1
*I *2169:B2 I *D OAI21_X1
*I *2336:A2 I *D NAND2_X1
*I *2160:A2 I *D NAND2_X1
*I *2170:A2 I *D NAND2_X1
*I *2161:A I *D INV_X1
*I *2175:A2 I *D NAND2_X1
*I *2164:S I *D MUX2_X1
*I *2159:ZN O *D NOR2_X2
*CAP
1 *2167:A2 0
2 *2169:B2 1.70305e-05
3 *2336:A2 0
4 *2160:A2 0
5 *2170:A2 1.31086e-05
6 *2161:A 0
7 *2175:A2 9.96875e-05
8 *2164:S 7.74203e-06
9 *2159:ZN 0.000186011
10 *424:84 0.000125878
11 *424:52 4.56994e-05
12 *424:41 0.000166978
13 *424:37 0.000481663
14 *424:35 0.000455677
15 *424:33 0.000236316
16 *424:25 0.000593963
17 *424:21 0.000506769
18 *424:10 0.000225315
19 *2164:S *1784:A1 2.39679e-06
20 *2169:B2 *962:12 4.24402e-05
21 *2170:A2 *2170:A1 4.37715e-05
22 *2175:A2 *1864:A1 0
23 *2175:A2 *1868:A1 0
24 *2175:A2 *2175:A1 2.52965e-06
25 *2175:A2 *426:47 8.43215e-07
26 *2175:A2 *884:75 1.96191e-05
27 *2175:A2 *964:12 0
28 *424:10 *1788:A1 1.9777e-05
29 *424:10 *1789:A1 0
30 *424:10 *837:360 5.46172e-05
31 *424:10 *948:8 3.69961e-05
32 *424:21 *948:8 6.03616e-05
33 *424:25 *2336:A1 1.68643e-06
34 *424:25 *1299:102 0.000100656
35 *424:25 *1306:135 4.94891e-06
36 *424:33 *1472:A 4.37475e-06
37 *424:33 *2160:A1 1.21774e-06
38 *424:33 *2163:A1 0
39 *424:33 *2253:A1 0
40 *424:33 *2337:A1 3.90865e-05
41 *424:33 *2338:A1 7.93806e-06
42 *424:33 *2338:A2 0
43 *424:33 *884:53 0
44 *424:33 *1278:18 1.91677e-05
45 *424:33 *1299:90 2.96955e-05
46 *424:37 *1455:CK 8.20289e-06
47 *424:37 *1780:A1 6.82202e-07
48 *424:37 *1780:B2 2.2384e-05
49 *424:37 *1866:B1 2.88615e-06
50 *424:37 *1868:B2 0
51 *424:37 *1869:A1 4.73598e-05
52 *424:37 *1869:A2 0
53 *424:37 *2160:A1 5.16856e-06
54 *424:37 *2253:A1 0
55 *424:37 *884:53 0
56 *424:37 *884:55 0
57 *424:37 *884:62 0
58 *424:37 *884:75 0
59 *424:37 *964:12 2.75346e-06
60 *424:41 *2170:A1 9.31751e-05
61 *424:52 *2170:A1 9.44209e-05
62 *424:84 *2167:A1 1.25215e-05
63 *424:84 *884:29 0
64 *424:84 *948:8 9.25412e-05
65 *424:84 *962:12 0
66 *424:84 *1295:147 3.01154e-05
67 *1359:D *424:37 3.89107e-05
68 *1776:A2 *424:37 5.84468e-05
69 *1779:A2 *424:37 1.64551e-05
70 *1784:A2 *424:10 4.32298e-05
71 *1784:A2 *424:21 1.72426e-05
72 *2113:A *424:25 1.68643e-06
73 *2113:B1 *424:25 8.44023e-06
74 *2113:B2 *424:25 1.36462e-05
75 *38:8 *424:21 0.00014161
76 *38:8 *424:84 0.000145725
77 *40:8 *424:33 0
78 *389:33 *424:25 0
79 *389:77 *424:25 2.55605e-05
*RES
1 *2159:ZN *424:10 32.75 
2 *424:10 *2164:S 10.75 
3 *424:10 *424:21 8.39286 
4 *424:21 *424:25 45.75 
5 *424:25 *424:33 35.25 
6 *424:33 *424:35 0.928572 
7 *424:35 *424:37 50.25 
8 *424:37 *424:41 10 
9 *424:41 *2175:A2 20.25 
10 *424:41 *424:52 5 
11 *424:52 *2161:A 10 
12 *424:52 *2170:A2 12.2857 
13 *424:33 *2160:A2 5 
14 *424:25 *2336:A2 5 
15 *424:21 *424:84 22.3929 
16 *424:84 *2169:B2 17.2857 
17 *424:84 *2167:A2 5 
*END

*D_NET *425 7.01305e-05
*CONN
*I *2163:A1 I *D NAND2_X1
*I *2160:ZN O *D NAND2_X1
*CAP
1 *2163:A1 3.22795e-05
2 *2160:ZN 3.22795e-05
3 *2163:A1 *2163:A2 1.21774e-06
4 *2163:A1 *884:53 1.60038e-06
5 *2162:A2 *2163:A1 2.75346e-06
6 *424:33 *2163:A1 0
*RES
1 *2160:ZN *2163:A1 13.5357 
*END

*D_NET *426 0.00387947
*CONN
*I *2171:A1 I *D NAND2_X1
*I *2176:A1 I *D NAND2_X1
*I *2165:A1 I *D NAND2_X1
*I *2166:B2 I *D OAI21_X1
*I *2173:A1 I *D NAND2_X1
*I *2174:B2 I *D OAI21_X1
*I *2162:A1 I *D NAND2_X1
*I *2337:A1 I *D NAND2_X1
*I *2161:ZN O *D INV_X1
*CAP
1 *2171:A1 2.19859e-05
2 *2176:A1 2.94263e-05
3 *2165:A1 2.59344e-05
4 *2166:B2 0
5 *2173:A1 9.73802e-06
6 *2174:B2 0
7 *2162:A1 0
8 *2337:A1 0.0001007
9 *2161:ZN 0.000111805
10 *426:77 0.000251445
11 *426:64 0.000297357
12 *426:55 0.000371559
13 *426:47 0.000456082
14 *426:41 0.000223182
15 *426:12 0.000112754
16 *426:8 0.000402985
17 *426:6 0.000418745
18 *2165:A1 *2166:A 2.94455e-05
19 *2165:A1 *756:99 4.62745e-06
20 *2165:A1 *756:103 5.54369e-05
21 *2171:A1 *1016:10 0
22 *2171:A1 *1292:113 5.0103e-05
23 *2173:A1 *1912:A1 1.11435e-06
24 *2173:A1 *1912:A2 2.75346e-06
25 *2176:A1 *1864:A1 5.03556e-06
26 *2176:A1 *2177:A1 1.60494e-06
27 *2176:A1 *2177:A2 7.85536e-06
28 *2337:A1 *2253:A1 0
29 *2337:A1 *598:19 0
30 *2337:A1 *1294:130 2.19391e-05
31 *426:8 *1782:A1 7.19036e-06
32 *426:8 *884:53 0.000228025
33 *426:8 *884:55 6.94228e-06
34 *426:8 *884:62 9.07534e-06
35 *426:8 *884:75 0.000188774
36 *426:8 *968:8 1.3743e-06
37 *426:12 *1294:130 2.94435e-05
38 *426:41 *2172:A1 0
39 *426:41 *884:75 0
40 *426:47 *1864:A1 1.80128e-05
41 *426:47 *2177:A1 9.9032e-06
42 *426:47 *884:75 0
43 *426:47 *1016:10 0
44 *426:47 *1292:96 5.54348e-05
45 *426:47 *1292:113 8.08825e-05
46 *426:55 *1353:CK 0
47 *426:55 *1864:A1 2.19401e-05
48 *426:55 *1914:A1 1.82068e-05
49 *426:55 *1919:A1 1.76415e-05
50 *426:55 *2174:A 2.16072e-07
51 *426:55 *609:45 0
52 *426:55 *811:78 2.39679e-06
53 *426:64 *2174:A 2.55029e-06
54 *426:64 *811:78 5.53316e-05
55 *426:77 *1831:A1 0
56 *426:77 *1832:A2 0
57 *426:77 *1833:A1 0
58 *426:77 *1912:A1 5.69557e-06
59 *426:77 *2166:B1 0
60 *426:77 *756:99 1.55606e-05
61 *1353:D *2176:A1 7.29164e-07
62 *1354:D *426:64 2.80727e-05
63 *1355:D *426:41 0
64 *1831:A2 *426:77 0
65 *2171:A2 *426:41 1.32116e-05
66 *2173:A2 *426:64 6.56185e-06
67 *2175:A2 *426:47 8.43215e-07
68 *2176:A2 *2176:A1 2.75346e-06
69 *37:12 *2165:A1 0
70 *424:33 *2337:A1 3.90865e-05
*RES
1 *2161:ZN *426:6 7.96429 
2 *426:6 *426:8 48.75 
3 *426:8 *426:12 6.60714 
4 *426:12 *2337:A1 21.3571 
5 *426:12 *2162:A1 10 
6 *2161:ZN *426:41 18.25 
7 *426:41 *426:47 19.7857 
8 *426:47 *426:55 42.5714 
9 *426:55 *2174:B2 5 
10 *426:55 *426:64 8.71429 
11 *426:64 *2173:A1 6.25 
12 *426:64 *426:77 27.8929 
13 *426:77 *2166:B2 10 
14 *426:77 *2165:A1 14.3214 
15 *426:47 *2176:A1 8.67857 
16 *426:41 *2171:A1 12.9643 
*END

*D_NET *427 0.000136489
*CONN
*I *2163:A2 I *D NAND2_X1
*I *2162:ZN O *D NAND2_X1
*CAP
1 *2163:A2 2.81319e-05
2 *2162:ZN 2.81319e-05
3 *2163:A2 *2160:A1 1.30565e-05
4 *2163:A2 *986:8 4.70781e-06
5 *2163:A2 *1294:130 5.39433e-05
6 *1359:D *2163:A2 6.18532e-06
7 *2162:A2 *2163:A2 1.11435e-06
8 *2163:A1 *2163:A2 1.21774e-06
*RES
1 *2162:ZN *2163:A2 24.2143 
*END

*D_NET *428 7.78537e-05
*CONN
*I *2166:A I *D OAI21_X1
*I *2165:ZN O *D NAND2_X1
*CAP
1 *2166:A 1.88016e-05
2 *2165:ZN 1.88016e-05
3 *2166:A *2166:B1 2.39679e-06
4 *1357:D *2166:A 1.21774e-06
5 *1831:A2 *2166:A 2.39679e-06
6 *2165:A1 *2166:A 2.94455e-05
7 *37:12 *2166:A 4.79358e-06
*RES
1 *2165:ZN *2166:A 22.3571 
*END

*D_NET *429 0.000104725
*CONN
*I *2169:A I *D OAI21_X1
*I *2167:ZN O *D NAND2_X1
*CAP
1 *2169:A 3.828e-05
2 *2167:ZN 3.828e-05
3 *2169:A *2167:A1 6.56185e-06
4 *2169:A *2169:B1 2.16035e-05
*RES
1 *2167:ZN *2169:A 14.8929 
*END

*D_NET *430 0.000133926
*CONN
*I *2169:B1 I *D OAI21_X1
*I *2168:ZN O *D INV_X1
*CAP
1 *2169:B1 4.9293e-05
2 *2168:ZN 4.9293e-05
3 *1356:D *2169:B1 2.39679e-06
4 *2168:A *2169:B1 1.13397e-05
5 *2169:A *2169:B1 2.16035e-05
*RES
1 *2168:ZN *2169:B1 16.7143 
*END

*D_NET *431 0.000250178
*CONN
*I *2172:A1 I *D NAND2_X1
*I *2170:ZN O *D NAND2_X1
*CAP
1 *2172:A1 9.85775e-05
2 *2170:ZN 9.85775e-05
3 *2172:A1 *1355:CK 1.64377e-05
4 *2172:A1 *2172:A2 2.25089e-06
5 *1355:D *2172:A1 3.43347e-05
6 *426:41 *2172:A1 0
*RES
1 *2170:ZN *2172:A1 21.2143 
*END

*D_NET *432 5.04793e-05
*CONN
*I *2172:A2 I *D NAND2_X1
*I *2171:ZN O *D NAND2_X1
*CAP
1 *2172:A2 1.87118e-05
2 *2171:ZN 1.87118e-05
3 *1355:D *2172:A2 8.9743e-06
4 *2171:A2 *2172:A2 1.83053e-06
5 *2172:A1 *2172:A2 2.25089e-06
*RES
1 *2171:ZN *2172:A2 12.1786 
*END

*D_NET *433 9.76371e-05
*CONN
*I *2174:A I *D OAI21_X1
*I *2173:ZN O *D NAND2_X1
*CAP
1 *2174:A 4.03785e-05
2 *2173:ZN 4.03785e-05
3 *2174:A *1912:A2 3.09143e-06
4 *2174:A *884:79 0
5 *1354:D *2174:A 1.10223e-05
6 *426:55 *2174:A 2.16072e-07
7 *426:64 *2174:A 2.55029e-06
*RES
1 *2173:ZN *2174:A 14.25 
*END

*D_NET *434 0.000237577
*CONN
*I *2177:A1 I *D NAND2_X1
*I *2175:ZN O *D NAND2_X1
*CAP
1 *2177:A1 6.65936e-05
2 *2175:ZN 6.65936e-05
3 *2177:A1 *2177:A2 6.0887e-06
4 *2177:A1 *884:75 3.90865e-05
5 *2177:A1 *884:79 4.77061e-05
6 *2176:A1 *2177:A1 1.60494e-06
7 *426:47 *2177:A1 9.9032e-06
*RES
1 *2175:ZN *2177:A1 19.1786 
*END

*D_NET *435 4.39849e-05
*CONN
*I *2177:A2 I *D NAND2_X1
*I *2176:ZN O *D NAND2_X1
*CAP
1 *2177:A2 1.45872e-05
2 *2176:ZN 1.45872e-05
3 *1353:D *2177:A2 8.66302e-07
4 *2176:A1 *2177:A2 7.85536e-06
5 *2177:A1 *2177:A2 6.0887e-06
*RES
1 *2176:ZN *2177:A2 12.1786 
*END

*D_NET *436 0.00693379
*CONN
*I *2183:S I *D MUX2_X1
*I *2180:A I *D INV_X1
*I *2194:A2 I *D NAND2_X1
*I *2179:A2 I *D NAND2_X1
*I *2189:A2 I *D NAND2_X1
*I *2333:A2 I *D NAND2_X1
*I *2186:A2 I *D NAND2_X1
*I *2188:B2 I *D OAI21_X1
*I *2178:ZN O *D NOR2_X2
*CAP
1 *2183:S 0
2 *2180:A 8.15016e-06
3 *2194:A2 0.00032076
4 *2179:A2 0
5 *2189:A2 0
6 *2333:A2 0
7 *2186:A2 1.37218e-05
8 *2188:B2 4.18803e-05
9 *2178:ZN 9.06003e-05
10 *436:88 0.000613121
11 *436:73 0.000437111
12 *436:69 0.000288281
13 *436:52 0.00053703
14 *436:42 0.000713104
15 *436:36 0.000923555
16 *436:18 0.000133318
17 *436:14 0.00117941
18 *436:12 0.00049903
19 *436:8 0.000100032
20 *2180:A *2680:A 1.76665e-06
21 *2186:A2 *2186:A1 3.65322e-06
22 *2186:A2 *2188:A 2.75346e-06
23 *2186:A2 *1295:172 0
24 *2188:B2 *2188:A 1.18547e-06
25 *2188:B2 *2188:B1 1.21774e-06
26 *2194:A2 *2179:A1 1.21774e-06
27 *2194:A2 *2194:A1 9.62051e-07
28 *2194:A2 *2668:A 0
29 *2194:A2 *598:323 0
30 *2194:A2 *1318:8 0
31 *436:8 *2183:B 3.79775e-05
32 *436:14 *1366:CK 2.73723e-05
33 *436:14 *884:8 0
34 *436:14 *1111:8 0
35 *436:14 *1111:51 0
36 *436:14 *1303:136 0.000151311
37 *436:14 *1303:147 0.00017341
38 *436:14 *1306:22 1.20477e-06
39 *436:14 *1306:35 3.83334e-05
40 *436:18 *1295:172 0
41 *436:36 *1836:B2 7.19421e-06
42 *436:36 *448:36 0
43 *436:36 *1111:51 0
44 *436:36 *1280:189 0
45 *436:36 *1303:147 7.88465e-05
46 *436:36 *1303:160 1.07633e-05
47 *436:36 *1303:179 3.43549e-05
48 *436:36 *1303:192 1.33029e-05
49 *436:42 *1314:34 0
50 *436:52 *2333:A1 7.16682e-05
51 *436:52 *2348:A1 0
52 *436:52 *2350:A2 4.68638e-06
53 *436:52 *1299:153 0
54 *436:52 *1314:26 0
55 *436:69 *2333:A1 1.21774e-06
56 *436:69 *2334:A1 0
57 *436:69 *2335:A2 1.43238e-06
58 *436:69 *2664:A 8.43215e-07
59 *436:69 *2680:A 6.38784e-06
60 *436:69 *598:155 0
61 *436:69 *609:123 6.92212e-05
62 *436:73 *2680:A 5.35001e-05
63 *436:73 *438:8 2.38496e-06
64 *436:73 *438:17 0
65 *436:73 *1294:186 1.66884e-05
66 *436:88 *2179:A1 4.87096e-06
67 *436:88 *2182:A1 6.78436e-07
68 *436:88 *438:28 0
69 *436:88 *1294:186 8.43215e-07
70 *436:88 *1298:177 8.58953e-06
71 *436:88 *1298:185 1.79214e-05
72 *1363:D *436:88 7.34989e-06
73 *1367:D *2194:A2 4.48197e-06
74 *1372:D *436:36 2.57883e-05
75 *2095:A1 *436:52 6.60111e-05
76 *2095:A2 *436:52 1.86809e-06
77 *2096:A1 *436:42 0
78 *2096:A2 *436:42 3.72101e-06
79 *2096:A2 *436:52 1.17623e-05
80 *2183:A *436:8 2.75346e-06
81 *2183:A *436:12 1.32348e-05
82 *2265:A2 *436:52 1.39265e-05
83 *2348:A2 *436:52 0
84 *2349:A1 *436:52 7.19036e-06
85 *2349:A2 *436:52 1.32507e-05
86 *123:12 *436:42 1.26036e-05
87 *123:12 *436:52 2.97473e-06
88 *376:65 *436:42 0
89 *388:12 *436:8 0
*RES
1 *2178:ZN *436:8 15.1786 
2 *436:8 *436:12 6.25 
3 *436:12 *436:14 62.6786 
4 *436:14 *436:18 12.25 
5 *436:18 *2188:B2 10.2143 
6 *436:18 *2186:A2 7.25 
7 *436:14 *436:36 70.8215 
8 *436:36 *436:42 35.3572 
9 *436:42 *436:52 45.7857 
10 *436:52 *2333:A2 5 
11 *436:52 *436:69 25.0714 
12 *436:69 *436:73 16.6786 
13 *436:73 *2189:A2 5 
14 *436:73 *436:88 40.6786 
15 *436:88 *2179:A2 5 
16 *436:88 *2194:A2 36.8572 
17 *436:69 *2180:A 5.92857 
18 *436:8 *2183:S 5 
*END

*D_NET *437 8.05931e-05
*CONN
*I *2182:A1 I *D NAND2_X1
*I *2179:ZN O *D NAND2_X1
*CAP
1 *2182:A1 2.26419e-05
2 *2179:ZN 2.26419e-05
3 *2182:A1 *2182:A2 3.0203e-05
4 *2182:A1 *1298:185 4.42782e-06
5 *436:88 *2182:A1 6.78436e-07
*RES
1 *2179:ZN *2182:A1 22.9643 
*END

*D_NET *438 0.00381189
*CONN
*I *2192:A1 I *D NAND2_X1
*I *2184:A1 I *D NAND2_X1
*I *2185:B2 I *D OAI21_X1
*I *2193:B2 I *D OAI21_X1
*I *2195:A1 I *D NAND2_X1
*I *2181:A1 I *D NAND2_X1
*I *2190:A1 I *D NAND2_X1
*I *2334:A1 I *D NAND2_X1
*I *2180:ZN O *D INV_X1
*CAP
1 *2192:A1 5.1003e-05
2 *2184:A1 6.21028e-06
3 *2185:B2 3.70652e-05
4 *2193:B2 0
5 *2195:A1 0
6 *2181:A1 2.14476e-05
7 *2190:A1 0
8 *2334:A1 0.000132642
9 *2180:ZN 7.70551e-05
10 *438:61 0.000234886
11 *438:50 0.000254658
12 *438:46 0.000467202
13 *438:37 0.000704181
14 *438:28 0.000631255
15 *438:17 0.000348958
16 *438:8 0.000299876
17 *2184:A1 *1365:CK 4.79358e-06
18 *2185:B2 *2185:A 9.23993e-06
19 *2185:B2 *756:128 7.72537e-06
20 *2185:B2 *756:173 3.02372e-05
21 *2185:B2 *756:190 2.84283e-05
22 *2185:B2 *1303:588 0
23 *2192:A1 *811:151 4.31937e-06
24 *2192:A1 *1303:575 1.28122e-06
25 *2334:A1 *2664:A 0
26 *2334:A1 *2680:A 0
27 *2334:A1 *1280:221 5.96926e-05
28 *2334:A1 *1303:504 0
29 *2334:A1 *1314:22 6.07323e-06
30 *438:8 *2680:A 3.96215e-05
31 *438:17 *2191:A1 2.26625e-06
32 *438:17 *1294:186 0
33 *438:17 *1303:504 0
34 *438:17 *1315:71 2.24534e-05
35 *438:28 *1363:CK 1.18109e-05
36 *438:28 *1745:B1 1.18232e-06
37 *438:28 *1303:508 9.62051e-07
38 *438:28 *1315:71 2.52965e-06
39 *438:37 *1361:CK 7.99278e-06
40 *438:37 *2668:A 0
41 *438:37 *1303:533 0
42 *438:37 *1318:8 0
43 *438:37 *1318:18 0
44 *438:37 *1318:104 3.51536e-06
45 *438:46 *609:171 0
46 *438:46 *756:128 0
47 *438:46 *1303:547 0
48 *438:46 *1303:575 0
49 *438:46 *1319:10 1.82015e-05
50 *438:50 *2193:B1 0
51 *438:50 *756:128 0
52 *438:50 *811:151 3.30767e-05
53 *438:61 *1362:CK 2.48889e-05
54 *438:61 *1365:CK 4.58901e-05
55 *438:61 *2193:B1 0
56 *438:61 *756:128 0
57 *438:61 *811:151 2.39679e-06
58 *438:61 *1303:582 0
59 *1362:D *438:61 3.51992e-06
60 *1363:D *438:28 3.99453e-05
61 *1367:D *438:37 0
62 *1381:D *438:46 1.64551e-05
63 *1812:B2 *438:61 0
64 *1891:B2 *2192:A1 1.21774e-06
65 *2184:A2 *2185:B2 2.94435e-05
66 *2192:A2 *2192:A1 5.5307e-06
67 *2192:A2 *438:61 1.28122e-06
68 *2334:A2 *2334:A1 8.43215e-07
69 *41:12 *438:37 2.39679e-06
70 *41:12 *438:46 2.66466e-05
71 *42:6 *438:61 0
72 *45:8 *2184:A1 2.16072e-07
73 *47:6 *438:28 2.39679e-06
74 *47:6 *438:37 4.4596e-05
75 *436:69 *2334:A1 0
76 *436:73 *438:8 2.38496e-06
77 *436:73 *438:17 0
78 *436:88 *438:28 0
*RES
1 *2180:ZN *438:8 14.3929 
2 *438:8 *2334:A1 21.3929 
3 *438:8 *438:17 9.60715 
4 *438:17 *2190:A1 5 
5 *438:17 *438:28 27.2857 
6 *438:28 *2181:A1 7.28572 
7 *438:28 *438:37 35.75 
8 *438:37 *2195:A1 5 
9 *438:37 *438:46 37.1786 
10 *438:46 *438:50 7.21429 
11 *438:50 *2193:B2 5 
12 *438:50 *438:61 21.6072 
13 *438:61 *2185:B2 20.75 
14 *438:61 *2184:A1 5.75 
15 *438:46 *2192:A1 11.1071 
*END

*D_NET *439 0.000186996
*CONN
*I *2182:A2 I *D NAND2_X1
*I *2181:ZN O *D NAND2_X1
*CAP
1 *2182:A2 2.42649e-05
2 *2181:ZN 2.42649e-05
3 *2182:A2 *2179:A1 7.72537e-06
4 *2182:A2 *1298:185 8.27554e-05
5 *2181:A2 *2182:A2 1.77822e-05
6 *2182:A1 *2182:A2 3.0203e-05
*RES
1 *2181:ZN *2182:A2 25.0714 
*END

*D_NET *440 9.77282e-05
*CONN
*I *2185:A I *D OAI21_X1
*I *2184:ZN O *D NAND2_X1
*CAP
1 *2185:A 3.90072e-05
2 *2184:ZN 3.90072e-05
3 *2185:A *1365:CK 6.64394e-06
4 *2185:A *756:128 3.82997e-06
5 *2185:A *1303:588 0
6 *2185:B2 *2185:A 9.23993e-06
*RES
1 *2184:ZN *2185:A 24.5357 
*END

*D_NET *441 6.77269e-05
*CONN
*I *2188:A I *D OAI21_X1
*I *2186:ZN O *D NAND2_X1
*CAP
1 *2188:A 2.76739e-05
2 *2186:ZN 2.76739e-05
3 *2188:A *2188:B1 8.44023e-06
4 *2188:A *1295:182 0
5 *2186:A2 *2188:A 2.75346e-06
6 *2188:B2 *2188:A 1.18547e-06
*RES
1 *2186:ZN *2188:A 13.6071 
*END

*D_NET *442 0.000130192
*CONN
*I *2188:B1 I *D OAI21_X1
*I *2187:ZN O *D INV_X1
*CAP
1 *2188:B1 4.50213e-05
2 *2187:ZN 4.50213e-05
3 *2188:B1 *2186:A1 5.11191e-06
4 *1364:D *2188:B1 7.59749e-06
5 *2187:A *2188:B1 1.77822e-05
6 *2188:A *2188:B1 8.44023e-06
7 *2188:B2 *2188:B1 1.21774e-06
*RES
1 *2187:ZN *2188:B1 25.0714 
*END

*D_NET *443 0.000136827
*CONN
*I *2191:A1 I *D NAND2_X1
*I *2189:ZN O *D NAND2_X1
*CAP
1 *2191:A1 3.79296e-05
2 *2189:ZN 3.79296e-05
3 *2191:A1 *1875:A1 5.54348e-05
4 *2191:A1 *1294:186 3.26648e-06
5 *438:17 *2191:A1 2.26625e-06
*RES
1 *2189:ZN *2191:A1 24.7143 
*END

*D_NET *444 0.000127233
*CONN
*I *2191:A2 I *D NAND2_X1
*I *2190:ZN O *D NAND2_X1
*CAP
1 *2191:A2 1.8108e-05
2 *2190:ZN 1.8108e-05
3 *2191:A2 *1419:CK 2.2652e-05
4 *2191:A2 *1875:A1 5.05831e-05
5 *2190:A2 *2191:A2 1.77822e-05
*RES
1 *2190:ZN *2191:A2 23.9643 
*END

*D_NET *445 5.2568e-05
*CONN
*I *2193:A I *D OAI21_X1
*I *2192:ZN O *D NAND2_X1
*CAP
1 *2193:A 1.08956e-05
2 *2192:ZN 1.08956e-05
3 *2193:A *915:12 0
4 *2193:A *991:8 3.07768e-05
*RES
1 *2192:ZN *2193:A 21.6071 
*END

*D_NET *446 0.00012314
*CONN
*I *2196:A1 I *D NAND2_X1
*I *2194:ZN O *D NAND2_X1
*CAP
1 *2196:A1 4.83501e-05
2 *2194:ZN 4.83501e-05
3 *2196:A1 *1361:CK 0
4 *2196:A1 *2196:A2 1.25215e-05
5 *2196:A1 *598:314 8.2465e-06
6 *2196:A1 *598:323 5.6716e-06
*RES
1 *2194:ZN *2196:A1 15.6071 
*END

*D_NET *447 0.000247695
*CONN
*I *2196:A2 I *D NAND2_X1
*I *2195:ZN O *D NAND2_X1
*CAP
1 *2196:A2 5.81722e-05
2 *2195:ZN 5.81722e-05
3 *2196:A2 *1377:CK 0
4 *2196:A2 *2684:A 0
5 *2196:A2 *1021:8 0.000118829
6 *2196:A2 *1292:171 0
7 *2196:A2 *1292:190 0
8 *2196:A1 *2196:A2 1.25215e-05
*RES
1 *2195:ZN *2196:A2 27.6071 
*END

*D_NET *448 0.00823521
*CONN
*I *2202:S I *D MUX2_X1
*I *2330:A2 I *D NAND2_X1
*I *2198:A2 I *D NAND2_X1
*I *2212:A2 I *D NAND2_X1
*I *2207:A2 I *D NAND2_X1
*I *2199:A I *D INV_X1
*I *2205:A2 I *D NAND2_X1
*I *2206:B2 I *D OAI21_X1
*I *2197:ZN O *D NOR2_X2
*CAP
1 *2202:S 0
2 *2330:A2 0
3 *2198:A2 1.02916e-05
4 *2212:A2 5.15543e-05
5 *2207:A2 0
6 *2199:A 0
7 *2205:A2 7.17197e-06
8 *2206:B2 6.61462e-06
9 *2197:ZN 0.000169695
10 *448:74 0.000429056
11 *448:57 0.000641324
12 *448:44 0.000370107
13 *448:40 0.000647249
14 *448:38 0.000551256
15 *448:36 0.000684855
16 *448:25 0.000702
17 *448:14 0.000566236
18 *448:12 0.000549649
19 *448:10 0.000169695
20 *2198:A2 *1292:215 6.46911e-05
21 *2198:A2 *1298:196 6.9187e-05
22 *2205:A2 *2206:A 7.19036e-06
23 *2206:B2 *2206:A 4.32144e-07
24 *2206:B2 *2206:B1 8.43215e-07
25 *2206:B2 *1312:60 7.19036e-06
26 *2212:A2 *2212:A1 0.000170127
27 *2212:A2 *1292:215 8.16058e-05
28 *2212:A2 *1298:196 0.000272942
29 *448:10 *1802:A1 5.30856e-05
30 *448:10 *2046:A1 8.5473e-06
31 *448:10 *2046:A2 1.98351e-05
32 *448:10 *876:12 1.53834e-05
33 *448:10 *1100:6 6.74466e-06
34 *448:10 *1100:12 1.75859e-05
35 *448:14 *1390:CK 4.45665e-05
36 *448:14 *1790:A1 1.61002e-06
37 *448:14 *1791:A 4.18507e-05
38 *448:14 *1794:A2 2.99872e-05
39 *448:14 *1794:B1 3.79731e-05
40 *448:14 *1837:A 0.000429117
41 *448:14 *2205:A1 0.00024823
42 *448:14 *837:388 6.03486e-06
43 *448:14 *1297:133 1.78252e-06
44 *448:14 *1303:147 3.25787e-05
45 *448:14 *1303:160 1.43538e-06
46 *448:14 *1303:179 4.75174e-05
47 *448:14 *1303:192 0.000183201
48 *448:25 *1837:A 5.1189e-05
49 *448:25 *2205:A1 5.48932e-05
50 *448:36 *1836:B2 1.02238e-05
51 *448:36 *1837:A 5.19786e-05
52 *448:36 *2205:A1 3.02372e-05
53 *448:36 *1280:189 0.000146399
54 *448:40 *1376:CK 1.42898e-05
55 *448:40 *2330:A1 8.43215e-07
56 *448:44 *2324:A1 4.25617e-05
57 *448:44 *2330:A1 4.32144e-07
58 *448:44 *2331:A1 0
59 *448:57 *2207:A1 2.33672e-05
60 *448:57 *2324:A1 2.49793e-05
61 *448:57 *2325:A1 0
62 *448:57 *2331:A1 0
63 *448:57 *450:14 0.000105322
64 *448:74 *1336:CK 3.19881e-05
65 *448:74 *1375:CK 0
66 *448:74 *2201:A1 0
67 *448:74 *2201:A2 1.39839e-06
68 *448:74 *2207:A1 7.83796e-06
69 *448:74 *2209:A1 0
70 *448:74 *2209:A2 0
71 *448:74 *2250:A2 0
72 *448:74 *450:33 4.68646e-05
73 *448:74 *1298:214 0
74 *1364:D *448:14 0
75 *1376:D *448:40 0
76 *1382:D *448:14 0
77 *1392:D *448:57 0
78 *1747:A2 *2212:A2 0
79 *1793:A2 *448:14 0.000100914
80 *1837:B2 *448:14 0
81 *2187:A *448:14 0
82 *2200:A2 *448:74 6.56185e-06
83 *2208:A2 *448:74 0
84 *54:8 *448:14 1.72426e-05
85 *56:8 *448:40 7.65847e-06
86 *436:36 *448:36 0
*RES
1 *2197:ZN *448:10 25.6072 
2 *448:10 *448:12 5 
3 *448:12 *448:14 80.3215 
4 *448:14 *2206:B2 10.75 
5 *448:14 *448:25 2.96429 
6 *448:25 *2205:A2 10.75 
7 *448:25 *448:36 81 
8 *448:36 *448:38 5 
9 *448:38 *448:40 55.25 
10 *448:40 *448:44 11.1786 
11 *448:44 *2199:A 5 
12 *448:44 *448:57 43.4643 
13 *448:57 *2207:A2 5 
14 *448:57 *448:74 44.1429 
15 *448:74 *2212:A2 24.5 
16 *448:74 *2198:A2 13.6429 
17 *448:40 *2330:A2 5 
18 *448:10 *2202:S 5 
*END

*D_NET *449 8.57754e-05
*CONN
*I *2201:A1 I *D NAND2_X1
*I *2198:ZN O *D NAND2_X1
*CAP
1 *2201:A1 3.0203e-05
2 *2198:ZN 3.0203e-05
3 *2201:A1 *1331:CK 5.19545e-06
4 *2201:A1 *2200:A1 2.16072e-07
5 *2201:A1 *2201:A2 2.24822e-06
6 *2201:A1 *450:48 6.48216e-07
7 *2201:A1 *1298:214 1.70614e-05
8 *448:74 *2201:A1 0
*RES
1 *2198:ZN *2201:A1 13.25 
*END

*D_NET *450 0.00421252
*CONN
*I *2331:A1 I *D NAND2_X1
*I *2211:B2 I *D OAI21_X1
*I *2203:A1 I *D NAND2_X1
*I *2204:B2 I *D OAI21_X1
*I *2210:A1 I *D NAND2_X1
*I *2213:A1 I *D NAND2_X1
*I *2200:A1 I *D NAND2_X1
*I *2208:A1 I *D NAND2_X1
*I *2199:ZN O *D INV_X1
*CAP
1 *2331:A1 0.000149937
2 *2211:B2 0
3 *2203:A1 4.61121e-05
4 *2204:B2 0
5 *2210:A1 0
6 *2213:A1 0
7 *2200:A1 3.25412e-06
8 *2208:A1 7.96549e-06
9 *2199:ZN 8.71307e-06
10 *450:74 9.85378e-05
11 *450:70 6.11387e-05
12 *450:63 0.000394085
13 *450:52 0.00066417
14 *450:48 0.000380345
15 *450:33 0.000359574
16 *450:14 0.000533828
17 *450:6 0.000429738
18 *2200:A1 *2201:A2 5.32858e-06
19 *2208:A1 *2209:A2 2.75346e-06
20 *2208:A1 *1290:12 0
21 *2331:A1 *2330:A1 4.32144e-07
22 *2331:A1 *2332:A2 2.75346e-06
23 *450:14 *1336:CK 0
24 *450:14 *1371:CK 1.19839e-05
25 *450:14 *473:25 0
26 *450:33 *1331:CK 4.24381e-05
27 *450:33 *2201:A2 1.71036e-05
28 *450:33 *1290:12 0
29 *450:48 *2212:A1 8.45953e-06
30 *450:48 *1292:215 7.14385e-06
31 *450:52 *2212:A1 7.19036e-06
32 *450:52 *2214:A1 8.03402e-05
33 *450:52 *2214:A2 4.80114e-06
34 *450:52 *473:32 0
35 *450:52 *1318:64 0
36 *450:63 *1329:CK 6.11168e-05
37 *450:63 *2211:B1 7.16188e-07
38 *450:63 *473:32 0
39 *450:63 *473:36 0
40 *450:63 *1319:78 0
41 *450:63 *1319:109 0
42 *450:74 *811:170 3.02351e-05
43 *450:74 *811:185 0.000102128
44 *1329:D *450:63 1.69081e-05
45 *1336:D *450:14 0.000114506
46 *1369:D *450:52 0
47 *1369:D *450:63 0
48 *1371:D *450:14 1.53357e-05
49 *1375:D *450:33 1.48912e-05
50 *1375:D *450:48 0.00019605
51 *1747:A2 *450:48 3.44913e-05
52 *1813:A2 *2203:A1 1.02657e-05
53 *1813:A2 *450:74 2.26306e-06
54 *1873:A2 *450:14 9.44209e-05
55 *2201:A1 *2200:A1 2.16072e-07
56 *2201:A1 *450:48 6.48216e-07
57 *2210:A2 *450:63 1.21774e-06
58 *2213:A2 *450:63 9.24306e-06
59 *49:10 *450:63 2.24081e-05
60 *53:10 *2203:A1 4.30618e-06
61 *56:8 *2331:A1 8.43215e-07
62 *448:44 *2331:A1 0
63 *448:57 *2331:A1 0
64 *448:57 *450:14 0.000105322
65 *448:74 *450:33 4.68646e-05
*RES
1 *2199:ZN *450:6 5.92857 
2 *450:6 *450:14 45.7857 
3 *450:14 *2208:A1 5.75 
4 *450:14 *450:33 39.2143 
5 *450:33 *2200:A1 5.75 
6 *450:33 *450:48 25.9286 
7 *450:48 *450:52 30.8572 
8 *450:52 *2213:A1 5 
9 *450:52 *450:63 41.4286 
10 *450:63 *2210:A1 5 
11 *450:63 *450:70 0.928572 
12 *450:70 *450:74 12.7143 
13 *450:74 *2204:B2 10 
14 *450:74 *2203:A1 15 
15 *450:70 *2211:B2 5 
16 *450:6 *2331:A1 20.2143 
*END

*D_NET *451 8.3159e-05
*CONN
*I *2201:A2 I *D NAND2_X1
*I *2200:ZN O *D NAND2_X1
*CAP
1 *2201:A2 2.85401e-05
2 *2200:ZN 2.85401e-05
3 *2201:A2 *1331:CK 0
4 *2200:A1 *2201:A2 5.32858e-06
5 *2201:A1 *2201:A2 2.24822e-06
6 *448:74 *2201:A2 1.39839e-06
7 *450:33 *2201:A2 1.71036e-05
*RES
1 *2200:ZN *2201:A2 13.6071 
*END

*D_NET *452 6.96804e-05
*CONN
*I *2204:A I *D OAI21_X1
*I *2203:ZN O *D NAND2_X1
*CAP
1 *2204:A 3.32202e-05
2 *2203:ZN 3.32202e-05
3 *2204:A *2204:B1 2.39679e-06
4 *2204:A *473:36 0
5 *2203:A2 *2204:A 8.43215e-07
*RES
1 *2203:ZN *2204:A 13.5357 
*END

*D_NET *453 7.51165e-05
*CONN
*I *2206:A I *D OAI21_X1
*I *2205:ZN O *D NAND2_X1
*CAP
1 *2206:A 3.00181e-05
2 *2205:ZN 3.00181e-05
3 *2206:A *2206:B1 6.50032e-06
4 *2206:A *1280:183 0
5 *2206:A *1312:60 9.57492e-07
6 *2205:A2 *2206:A 7.19036e-06
7 *2206:B2 *2206:A 4.32144e-07
*RES
1 *2205:ZN *2206:A 13.3571 
*END

*D_NET *454 0.00010549
*CONN
*I *2209:A1 I *D NAND2_X1
*I *2207:ZN O *D NAND2_X1
*CAP
1 *2209:A1 4.08853e-05
2 *2207:ZN 4.08853e-05
3 *2209:A1 *2207:A1 3.62783e-06
4 *2209:A1 *2209:A2 6.07149e-06
5 *2209:A1 *1290:12 1.40196e-05
6 *448:74 *2209:A1 0
*RES
1 *2207:ZN *2209:A1 14.8571 
*END

*D_NET *455 4.65225e-05
*CONN
*I *2209:A2 I *D NAND2_X1
*I *2208:ZN O *D NAND2_X1
*CAP
1 *2209:A2 1.81681e-05
2 *2208:ZN 1.81681e-05
3 *2209:A2 *2207:A1 1.36133e-06
4 *2208:A1 *2209:A2 2.75346e-06
5 *2209:A1 *2209:A2 6.07149e-06
6 *448:74 *2209:A2 0
*RES
1 *2208:ZN *2209:A2 12.1786 
*END

*D_NET *456 0.000137087
*CONN
*I *2211:A I *D OAI21_X1
*I *2210:ZN O *D NAND2_X1
*CAP
1 *2211:A 2.82188e-05
2 *2210:ZN 2.82188e-05
3 *2211:A *2211:B1 7.19036e-06
4 *2211:A *473:36 1.08036e-06
5 *2211:A *811:170 4.32298e-05
6 *2211:A *811:185 1.66988e-05
7 *1370:D *2211:A 8.43215e-07
8 *1813:A2 *2211:A 1.16067e-05
9 *2210:A2 *2211:A 0
*RES
1 *2210:ZN *2211:A 24.2143 
*END

*D_NET *457 0.000389774
*CONN
*I *2214:A1 I *D NAND2_X1
*I *2212:ZN O *D NAND2_X1
*CAP
1 *2214:A1 0.000151261
2 *2212:ZN 0.000151261
3 *2214:A1 *2214:A2 8.43215e-07
4 *2214:A1 *1318:64 6.06867e-06
5 *450:52 *2214:A1 8.03402e-05
*RES
1 *2212:ZN *2214:A1 28.25 
*END

*D_NET *458 9.93491e-05
*CONN
*I *2214:A2 I *D NAND2_X1
*I *2213:ZN O *D NAND2_X1
*CAP
1 *2214:A2 4.68524e-05
2 *2213:ZN 4.68524e-05
3 *1369:D *2214:A2 0
4 *2214:A1 *2214:A2 8.43215e-07
5 *450:52 *2214:A2 4.80114e-06
*RES
1 *2213:ZN *2214:A2 14.6786 
*END

*D_NET *459 0.00669865
*CONN
*I *2225:B2 I *D OAI21_X1
*I *2216:A2 I *D NAND2_X1
*I *2231:A2 I *D NAND2_X2
*I *2217:A I *D INV_X1
*I *2226:A2 I *D NAND2_X1
*I *2327:A2 I *D NAND2_X1
*I *2223:A2 I *D NAND2_X1
*I *2220:S I *D MUX2_X1
*I *2215:ZN O *D NOR2_X2
*CAP
1 *2225:B2 0
2 *2216:A2 2.13617e-05
3 *2231:A2 0
4 *2217:A 2.08846e-05
5 *2226:A2 0
6 *2327:A2 0
7 *2223:A2 0
8 *2220:S 0.000247543
9 *2215:ZN 4.92197e-05
10 *459:68 0.000213561
11 *459:60 0.000566061
12 *459:53 0.000561703
13 *459:46 0.000533006
14 *459:42 0.00104634
15 *459:33 0.000739859
16 *459:29 0.000196198
17 *459:8 0.000476121
18 *2216:A2 *2219:A1 5.10511e-06
19 *2216:A2 *595:211 8.07495e-06
20 *2216:A2 *1298:185 4.9678e-06
21 *2217:A *1292:190 1.76665e-06
22 *2220:S *1791:A 0
23 *459:8 *471:10 2.03339e-05
24 *459:8 *471:19 8.87778e-06
25 *459:8 *1100:45 5.20817e-05
26 *459:29 *2225:B1 3.09411e-06
27 *459:29 *471:19 0.000103136
28 *459:29 *1100:45 0.000179736
29 *459:29 *1295:170 0
30 *459:33 *2225:B1 2.94455e-05
31 *459:33 *1100:45 3.82563e-06
32 *459:33 *1111:51 1.31814e-05
33 *459:42 *2225:B1 0.000118577
34 *459:42 *471:41 0
35 *459:42 *1100:45 7.57311e-05
36 *459:42 *1111:51 1.86108e-05
37 *459:42 *1312:56 0.000120658
38 *459:46 *2327:A1 1.21774e-06
39 *459:46 *1294:204 8.13101e-05
40 *459:53 *2261:A 0
41 *459:53 *2327:A1 0.000112443
42 *459:53 *1294:204 6.35159e-05
43 *459:60 *2261:A 0
44 *459:60 *595:12 9.74498e-05
45 *459:60 *595:211 0.000345028
46 *459:60 *609:136 0
47 *459:60 *1280:235 5.58902e-05
48 *459:60 *1294:194 0.000221405
49 *459:60 *1294:204 1.21774e-06
50 *459:68 *595:211 6.9668e-05
51 *459:68 *595:213 2.96103e-05
52 *459:68 *609:143 2.23871e-06
53 *459:68 *609:156 3.54682e-05
54 *459:68 *1292:190 2.75346e-06
55 *459:68 *1298:185 4.18301e-05
56 *1380:D *459:29 2.73661e-05
57 *1382:D *2220:S 1.915e-05
58 *68:12 *459:42 5.20211e-05
59 *376:14 *2220:S 0
*RES
1 *2215:ZN *459:8 17.6429 
2 *459:8 *2220:S 28.98 
3 *459:8 *459:29 34.1786 
4 *459:29 *459:33 7.96429 
5 *459:33 *2223:A2 10 
6 *459:33 *459:42 88.4643 
7 *459:42 *459:46 39.75 
8 *459:46 *2327:A2 5 
9 *459:46 *459:53 25.75 
10 *459:53 *2226:A2 5 
11 *459:53 *459:60 53.25 
12 *459:60 *459:68 34.0357 
13 *459:68 *2217:A 7.28572 
14 *459:68 *2231:A2 5 
15 *459:60 *2216:A2 7.92857 
16 *459:29 *2225:B2 5 
*END

*D_NET *460 6.57814e-05
*CONN
*I *2219:A1 I *D NAND2_X1
*I *2216:ZN O *D NAND2_X1
*CAP
1 *2219:A1 2.25119e-05
2 *2216:ZN 2.25119e-05
3 *2219:A1 *461:67 0
4 *2219:A1 *595:211 1.26998e-05
5 *2219:A1 *1298:196 1.18589e-06
6 *1383:D *2219:A1 1.76665e-06
7 *2216:A2 *2219:A1 5.10511e-06
*RES
1 *2216:ZN *2219:A1 12.8571 
*END

*D_NET *461 0.00346129
*CONN
*I *2227:A1 I *D NAND2_X1
*I *2328:A1 I *D NAND2_X1
*I *2218:A1 I *D NAND2_X1
*I *2229:A1 I *D NAND2_X1
*I *2230:B2 I *D OAI21_X1
*I *2221:A1 I *D NAND2_X1
*I *2222:B2 I *D OAI21_X1
*I *2232:A1 I *D NAND2_X1
*I *2217:ZN O *D INV_X1
*CAP
1 *2227:A1 0
2 *2328:A1 0.000215613
3 *2218:A1 0
4 *2229:A1 2.55132e-05
5 *2230:B2 0
6 *2221:A1 0
7 *2222:B2 3.39265e-05
8 *2232:A1 0
9 *2217:ZN 4.87267e-05
10 *461:92 0.000261201
11 *461:84 0.000513173
12 *461:82 0.000536452
13 *461:67 0.000274319
14 *461:29 5.8087e-05
15 *461:27 3.24968e-05
16 *461:25 0.000270876
17 *461:12 0.000306195
18 *461:8 0.000323347
19 *2222:B2 *1319:59 1.82823e-05
20 *2229:A1 *2230:A 9.77674e-06
21 *2229:A1 *1319:76 7.20039e-06
22 *2328:A1 *2228:A2 0
23 *2328:A1 *2260:B1 1.66442e-05
24 *2328:A1 *1294:204 2.23643e-05
25 *461:12 *595:213 1.05506e-05
26 *461:25 *1378:CK 1.07746e-05
27 *461:25 *1921:B1 0
28 *461:25 *1924:A2 0
29 *461:25 *1924:B2 0
30 *461:25 *595:213 2.71563e-05
31 *461:25 *1319:59 4.7875e-06
32 *461:25 *1319:76 2.37378e-05
33 *461:27 *1319:59 3.1212e-06
34 *461:29 *1319:59 1.04925e-05
35 *461:67 *1921:A 0
36 *461:67 *595:211 0
37 *461:67 *595:213 0
38 *461:67 *851:8 0
39 *461:67 *1298:185 2.16072e-07
40 *461:67 *1298:196 6.48216e-07
41 *461:82 *1748:B2 2.84765e-06
42 *461:82 *1280:235 2.46668e-06
43 *461:82 *1298:196 8.20884e-06
44 *461:84 *1748:A1 0
45 *461:84 *1748:B2 2.20333e-05
46 *461:84 *1871:A 2.83434e-06
47 *461:84 *1871:B1 5.61635e-05
48 *461:84 *1874:A2 2.12241e-05
49 *461:84 *2246:A1 0
50 *461:84 *2247:A2 0
51 *461:84 *837:259 0
52 *461:84 *837:268 0
53 *461:84 *1280:235 0
54 *461:84 *1315:46 1.82151e-05
55 *461:92 *1871:B1 1.11435e-06
56 *461:92 *2260:B1 7.16188e-07
57 *461:92 *493:8 4.16195e-06
58 *461:92 *1303:480 3.23246e-05
59 *1378:D *461:25 1.60664e-06
60 *1381:D *2222:B2 6.21255e-06
61 *1383:D *461:67 0
62 *1870:A2 *461:84 9.30026e-06
63 *1921:B2 *461:25 0
64 *2218:A2 *461:82 4.50392e-06
65 *2219:A1 *461:67 0
66 *2227:A2 *2328:A1 1.21774e-06
67 *2227:A2 *461:92 4.12459e-06
68 *2232:A2 *461:12 1.21774e-06
69 *2232:A2 *461:25 1.46756e-05
70 *2246:A2 *461:84 2.51631e-06
71 *2260:B2 *2328:A1 0
72 *58:10 *461:25 1.02733e-05
73 *59:12 *461:84 9.24754e-05
74 *63:8 *461:67 1.46166e-05
75 *63:8 *461:82 2.39679e-06
76 *147:10 *461:8 4.52546e-05
77 *147:10 *461:67 1.07633e-05
78 *152:8 *461:92 2.14884e-06
*RES
1 *2217:ZN *461:8 16.3571 
2 *461:8 *461:12 12.25 
3 *461:12 *2232:A1 5 
4 *461:12 *461:25 31.2679 
5 *461:25 *461:27 1.26786 
6 *461:27 *461:29 2.96429 
7 *461:29 *2222:B2 14.3214 
8 *461:29 *2221:A1 10 
9 *461:27 *2230:B2 10 
10 *461:25 *2229:A1 13.3036 
11 *461:8 *461:67 25.3572 
12 *461:67 *2218:A1 5 
13 *461:67 *461:82 16.5 
14 *461:82 *461:84 52.75 
15 *461:84 *461:92 14.8929 
16 *461:92 *2328:A1 28.0357 
17 *461:92 *2227:A1 5 
*END

*D_NET *462 0.000151971
*CONN
*I *2219:A2 I *D NAND2_X1
*I *2218:ZN O *D NAND2_X1
*CAP
1 *2219:A2 3.85171e-05
2 *2218:ZN 3.85171e-05
3 *2219:A2 *1741:B1 2.19899e-05
4 *2219:A2 *1298:185 3.07364e-05
5 *2219:A2 *1298:196 4.42782e-06
6 *2218:A2 *2219:A2 1.77822e-05
*RES
1 *2218:ZN *2219:A2 26 
*END

*D_NET *463 6.0958e-05
*CONN
*I *2222:A I *D OAI21_X1
*I *2221:ZN O *D NAND2_X1
*CAP
1 *2222:A 2.63352e-05
2 *2221:ZN 2.63352e-05
3 *2222:A *2222:B1 8.43215e-07
4 *2222:A *595:213 1.91498e-06
5 *2222:A *609:171 3.13272e-06
6 *2221:A2 *2222:A 2.39679e-06
*RES
1 *2221:ZN *2222:A 13.6071 
*END

*D_NET *464 5.70962e-05
*CONN
*I *2225:A I *D OAI21_X1
*I *2223:ZN O *D NAND2_X1
*CAP
1 *2225:A 2.45802e-05
2 *2223:ZN 2.45802e-05
3 *2225:A *2225:B1 2.39679e-06
4 *2225:A *1295:170 2.70833e-06
5 *2225:A *1295:172 2.83077e-06
*RES
1 *2223:ZN *2225:A 12.8571 
*END

*D_NET *465 0.000280057
*CONN
*I *2225:B1 I *D OAI21_X1
*I *2224:ZN O *D INV_X1
*CAP
1 *2225:B1 4.83099e-05
2 *2224:ZN 4.83099e-05
3 *2225:B1 *1100:45 2.99242e-05
4 *2225:A *2225:B1 2.39679e-06
5 *459:29 *2225:B1 3.09411e-06
6 *459:33 *2225:B1 2.94455e-05
7 *459:42 *2225:B1 0.000118577
*RES
1 *2224:ZN *2225:B1 28.4643 
*END

*D_NET *466 0.000132171
*CONN
*I *2228:A1 I *D NAND2_X1
*I *2226:ZN O *D NAND2_X1
*CAP
1 *2228:A1 1.1365e-05
2 *2226:ZN 1.1365e-05
3 *2228:A1 *493:8 5.51165e-05
4 *2228:A1 *1303:480 5.43248e-05
*RES
1 *2226:ZN *2228:A1 22.9643 
*END

*D_NET *467 9.68434e-05
*CONN
*I *2228:A2 I *D NAND2_X1
*I *2227:ZN O *D NAND2_X1
*CAP
1 *2228:A2 3.86788e-05
2 *2227:ZN 3.86788e-05
3 *2228:A2 *1294:194 2.39679e-06
4 *2228:A2 *1294:204 1.19839e-05
5 *1379:D *2228:A2 2.39679e-06
6 *2227:A2 *2228:A2 2.70833e-06
7 *2328:A1 *2228:A2 0
*RES
1 *2227:ZN *2228:A2 14.2143 
*END

*D_NET *468 7.8086e-05
*CONN
*I *2230:A I *D OAI21_X1
*I *2229:ZN O *D NAND2_X1
*CAP
1 *2230:A 2.11873e-05
2 *2229:ZN 2.11873e-05
3 *2230:A *2230:B1 1.32348e-05
4 *1890:B2 *2230:A 1.26998e-05
5 *2229:A1 *2230:A 9.77674e-06
*RES
1 *2229:ZN *2230:A 22.8571 
*END

*D_NET *469 0.000100187
*CONN
*I *2233:A1 I *D NAND2_X2
*I *2231:ZN O *D NAND2_X2
*CAP
1 *2233:A1 2.24104e-05
2 *2231:ZN 2.24104e-05
3 *2233:A1 *595:213 3.89107e-05
4 *2233:A1 *1292:190 1.64551e-05
*RES
1 *2231:ZN *2233:A1 13.75 
*END

*D_NET *470 7.59548e-05
*CONN
*I *2233:A2 I *D NAND2_X2
*I *2232:ZN O *D NAND2_X1
*CAP
1 *2233:A2 3.79774e-05
2 *2232:ZN 3.79774e-05
3 *2233:A2 *1377:CK 0
4 *2233:A2 *1292:196 0
5 *2232:A2 *2233:A2 0
*RES
1 *2232:ZN *2233:A2 23.6429 
*END

*D_NET *471 0.00732116
*CONN
*I *2324:A2 I *D NAND2_X1
*I *2235:A2 I *D NAND2_X1
*I *2250:A2 I *D NAND2_X2
*I *2245:A2 I *D NAND2_X1
*I *2236:A I *D INV_X1
*I *2244:B2 I *D OAI21_X1
*I *2242:A2 I *D NAND2_X1
*I *2239:S I *D MUX2_X1
*I *2234:ZN O *D NOR2_X2
*CAP
1 *2324:A2 8.49759e-05
2 *2235:A2 0
3 *2250:A2 0.000289099
4 *2245:A2 1.43857e-05
5 *2236:A 0
6 *2244:B2 6.09993e-06
7 *2242:A2 5.79e-06
8 *2239:S 0
9 *2234:ZN 6.49465e-05
10 *471:83 0.000531339
11 *471:66 0.000336393
12 *471:57 0.000244403
13 *471:51 0.000249611
14 *471:49 0.000546071
15 *471:47 0.000728391
16 *471:41 0.00073082
17 *471:30 0.000566994
18 *471:19 0.000375138
19 *471:10 0.000421901
20 *2242:A2 *837:125 1.68643e-06
21 *2242:A2 *837:133 2.39679e-06
22 *2244:B2 *2242:A1 7.19036e-06
23 *2244:B2 *2244:B1 2.52965e-06
24 *2245:A2 *1874:B2 4.26902e-05
25 *2245:A2 *2245:A1 1.21774e-06
26 *2245:A2 *2246:A1 1.55619e-05
27 *2245:A2 *2247:A1 8.26038e-06
28 *2250:A2 *1375:CK 1.26998e-05
29 *2250:A2 *2235:A1 2.38892e-05
30 *2250:A2 *2238:A1 1.27666e-06
31 *2250:A2 *473:32 0
32 *2250:A2 *1292:200 0.000218608
33 *2250:A2 *1318:75 0
34 *2324:A2 *2324:A1 3.09411e-06
35 *2324:A2 *2326:A1 7.72792e-06
36 *471:10 *2064:A2 8.43215e-07
37 *471:10 *2083:A2 3.34038e-05
38 *471:10 *2215:A1 4.79729e-06
39 *471:10 *1061:38 3.13136e-05
40 *471:10 *1100:45 2.26308e-06
41 *471:19 *1840:B1 3.76439e-05
42 *471:19 *1840:B2 0.000106237
43 *471:19 *2242:A1 0.000494003
44 *471:19 *1100:45 3.53102e-05
45 *471:30 *2242:A1 2.89018e-05
46 *471:41 *1100:45 7.62751e-06
47 *471:49 *837:224 3.34038e-05
48 *471:57 *2263:A1 6.99525e-06
49 *471:57 *2263:A2 0
50 *471:57 *837:224 2.52965e-06
51 *471:57 *837:235 2.6518e-05
52 *471:57 *1315:46 0
53 *471:66 *2245:A1 2.21972e-05
54 *471:66 *2246:A1 2.94062e-05
55 *471:66 *473:6 5.06354e-05
56 *471:66 *837:235 6.06867e-06
57 *471:66 *837:246 3.19164e-07
58 *471:66 *1315:46 0
59 *471:83 *1874:B2 4.32319e-05
60 *471:83 *2235:A1 8.43215e-07
61 *471:83 *2238:A1 2.75346e-06
62 *471:83 *2246:A1 4.12796e-06
63 *471:83 *473:25 6.829e-05
64 *471:83 *473:32 1.93619e-05
65 *471:83 *837:246 0
66 *471:83 *1315:97 1.61249e-06
67 *1375:D *2250:A2 6.48216e-07
68 *1838:A2 *471:19 4.16122e-05
69 *1838:A2 *471:30 3.66089e-05
70 *1838:A2 *471:41 4.95373e-05
71 *1873:A2 *471:83 0.000224117
72 *2259:A2 *2324:A2 0.000108171
73 *2259:A2 *471:57 6.77531e-05
74 *64:10 *471:49 7.34533e-06
75 *68:12 *471:41 0
76 *376:55 *2242:A2 7.19036e-06
77 *448:74 *2250:A2 0
78 *459:8 *471:10 2.03339e-05
79 *459:8 *471:19 8.87778e-06
80 *459:29 *471:19 0.000103136
81 *459:42 *471:41 0
*RES
1 *2234:ZN *471:10 18.9286 
2 *471:10 *2239:S 10 
3 *471:10 *471:19 56.5715 
4 *471:19 *2242:A2 10.75 
5 *471:19 *471:30 2.28572 
6 *471:30 *2244:B2 10.75 
7 *471:30 *471:41 62.3393 
8 *471:41 *471:47 24.6607 
9 *471:47 *471:49 55.25 
10 *471:49 *471:51 5 
11 *471:51 *471:57 23.8929 
12 *471:57 *2236:A 5 
13 *471:57 *471:66 15.75 
14 *471:66 *2245:A2 13.0357 
15 *471:66 *471:83 37.8929 
16 *471:83 *2250:A2 48.7143 
17 *471:83 *2235:A2 5 
18 *471:51 *2324:A2 21.1786 
*END

*D_NET *472 6.2114e-05
*CONN
*I *2238:A1 I *D NAND2_X1
*I *2235:ZN O *D NAND2_X1
*CAP
1 *2238:A1 2.14421e-05
2 *2235:ZN 2.14421e-05
3 *2238:A1 *2235:A1 1.43238e-06
4 *2238:A1 *473:32 1.37673e-05
5 *2250:A2 *2238:A1 1.27666e-06
6 *471:83 *2238:A1 2.75346e-06
*RES
1 *2235:ZN *2238:A1 12.8571 
*END

*D_NET *473 0.00438189
*CONN
*I *2246:A1 I *D NAND2_X1
*I *2251:A1 I *D NAND2_X1
*I *2249:B2 I *D OAI21_X1
*I *2248:A1 I *D NAND2_X1
*I *2241:B2 I *D OAI21_X1
*I *2240:A1 I *D NAND2_X1
*I *2237:A1 I *D NAND2_X1
*I *2325:A1 I *D NAND2_X1
*I *2236:ZN O *D INV_X1
*CAP
1 *2246:A1 5.90953e-05
2 *2251:A1 4.17992e-05
3 *2249:B2 8.71307e-06
4 *2248:A1 0
5 *2241:B2 5.84187e-05
6 *2240:A1 0
7 *2237:A1 0
8 *2325:A1 0.000203681
9 *2236:ZN 3.04608e-05
10 *473:64 1.74261e-05
11 *473:46 0.000237967
12 *473:36 0.000604896
13 *473:34 0.000470149
14 *473:32 0.000504936
15 *473:25 0.000680898
16 *473:14 0.000472405
17 *473:6 0.000170602
18 *2241:B2 *2241:A 3.20379e-05
19 *2241:B2 *756:190 1.21774e-06
20 *2246:A1 *1874:B2 4.92317e-06
21 *2246:A1 *2247:A2 7.19036e-06
22 *2246:A1 *837:235 4.32902e-06
23 *2246:A1 *1315:97 0.00010583
24 *2325:A1 *2326:A2 1.21774e-06
25 *473:6 *837:235 1.07393e-05
26 *473:14 *2207:A1 4.11427e-05
27 *473:25 *1371:CK 0
28 *473:32 *2238:A2 4.44177e-05
29 *473:32 *2252:A1 0
30 *473:32 *2252:A2 7.19234e-06
31 *473:36 *1329:CK 0
32 *473:36 *1733:A 1.64551e-05
33 *473:36 *811:185 2.6518e-05
34 *473:46 *1386:CK 6.03616e-05
35 *473:46 *1703:A 6.38328e-07
36 *473:46 *1810:A1 0
37 *473:46 *1814:B2 0
38 *473:46 *2241:A 1.26998e-05
39 *473:46 *811:185 6.38328e-07
40 *473:46 *1319:135 8.6458e-05
41 *1370:D *473:36 0
42 *1371:D *473:25 9.57492e-07
43 *1375:D *473:32 3.09411e-06
44 *1386:D *2249:B2 0
45 *1386:D *473:46 8.30669e-06
46 *1386:D *473:64 0
47 *1387:D *2246:A1 2.94455e-05
48 *1392:D *2325:A1 3.51536e-06
49 *1889:A2 *473:46 0
50 *2204:A *473:36 0
51 *2211:A *473:36 1.08036e-06
52 *2237:A2 *473:25 1.21774e-06
53 *2237:A2 *473:32 1.21774e-06
54 *2238:A1 *473:32 1.37673e-05
55 *2240:A2 *2241:B2 6.38328e-07
56 *2240:A2 *473:46 2.83077e-06
57 *2245:A2 *2246:A1 1.55619e-05
58 *2246:A2 *2246:A1 8.43215e-07
59 *2250:A2 *473:32 0
60 *49:10 *473:32 2.32473e-05
61 *49:10 *473:36 2.23871e-06
62 *66:12 *473:36 2.39679e-06
63 *66:12 *473:46 5.8363e-05
64 *72:8 *2325:A1 1.5896e-05
65 *448:57 *2325:A1 0
66 *450:14 *473:25 0
67 *450:52 *473:32 0
68 *450:63 *473:32 0
69 *450:63 *473:36 0
70 *461:84 *2246:A1 0
71 *471:66 *2246:A1 2.94062e-05
72 *471:66 *473:6 5.06354e-05
73 *471:83 *2246:A1 4.12796e-06
74 *471:83 *473:25 6.829e-05
75 *471:83 *473:32 1.93619e-05
*RES
1 *2236:ZN *473:6 9.75 
2 *473:6 *473:14 20.3571 
3 *473:14 *2325:A1 25.8929 
4 *473:14 *473:25 21.2143 
5 *473:25 *2237:A1 5 
6 *473:25 *473:32 52.1429 
7 *473:32 *473:34 0.928572 
8 *473:34 *473:36 42.8572 
9 *473:36 *473:46 35.9286 
10 *473:46 *2240:A1 5 
11 *473:46 *2241:B2 11.6071 
12 *473:36 *473:64 0.928572 
13 *473:64 *2248:A1 5 
14 *473:64 *2249:B2 5.92857 
15 *473:34 *2251:A1 9.42857 
16 *473:6 *2246:A1 24.6786 
*END

*D_NET *474 0.000132299
*CONN
*I *2238:A2 I *D NAND2_X1
*I *2237:ZN O *D NAND2_X1
*CAP
1 *2238:A2 2.17319e-05
2 *2237:ZN 2.17319e-05
3 *2237:A2 *2238:A2 4.44177e-05
4 *473:32 *2238:A2 4.44177e-05
*RES
1 *2237:ZN *2238:A2 14.25 
*END

*D_NET *475 0.000195675
*CONN
*I *2241:A I *D OAI21_X1
*I *2240:ZN O *D NAND2_X1
*CAP
1 *2241:A 7.36318e-05
2 *2240:ZN 7.36318e-05
3 *2241:A *756:190 2.39679e-06
4 *1810:A2 *2241:A 0
5 *2240:A2 *2241:A 1.27666e-06
6 *2241:B2 *2241:A 3.20379e-05
7 *473:46 *2241:A 1.26998e-05
*RES
1 *2240:ZN *2241:A 18.3571 
*END

*D_NET *476 0.000108581
*CONN
*I *2244:A I *D OAI21_X1
*I *2242:ZN O *D NAND2_X1
*CAP
1 *2244:A 2.45523e-05
2 *2242:ZN 2.45523e-05
3 *2244:A *2244:B1 2.39679e-06
4 *2244:A *1100:45 2.13227e-05
5 *1388:D *2244:A 2.39679e-06
6 *1838:A2 *2244:A 2.06603e-05
7 *68:12 *2244:A 1.26998e-05
8 *376:55 *2244:A 0
*RES
1 *2242:ZN *2244:A 24.2143 
*END

*D_NET *477 7.39191e-05
*CONN
*I *2244:B1 I *D OAI21_X1
*I *2243:ZN O *D INV_X1
*CAP
1 *2244:B1 3.34346e-05
2 *2243:ZN 3.34346e-05
3 *2244:B1 *2242:A1 4.32144e-07
4 *2244:B1 *1312:46 9.62051e-07
5 *1388:D *2244:B1 7.29164e-07
6 *2244:A *2244:B1 2.39679e-06
7 *2244:B2 *2244:B1 2.52965e-06
*RES
1 *2243:ZN *2244:B1 13.5357 
*END

*D_NET *478 7.12471e-05
*CONN
*I *2247:A1 I *D NAND2_X1
*I *2245:ZN O *D NAND2_X1
*CAP
1 *2247:A1 3.10717e-05
2 *2245:ZN 3.10717e-05
3 *2247:A1 *2247:A2 8.43215e-07
4 *2247:A1 *837:246 0
5 *2245:A2 *2247:A1 8.26038e-06
6 *2246:A2 *2247:A1 0
*RES
1 *2245:ZN *2247:A1 13.3571 
*END

*D_NET *479 6.16167e-05
*CONN
*I *2247:A2 I *D NAND2_X1
*I *2246:ZN O *D NAND2_X1
*CAP
1 *2247:A2 2.52458e-05
2 *2246:ZN 2.52458e-05
3 *2247:A2 *2245:A1 0
4 *2247:A2 *1315:46 3.09143e-06
5 *2246:A1 *2247:A2 7.19036e-06
6 *2247:A1 *2247:A2 8.43215e-07
7 *461:84 *2247:A2 0
*RES
1 *2246:ZN *2247:A2 12.6786 
*END

*D_NET *480 0.000133844
*CONN
*I *2249:A I *D OAI21_X1
*I *2248:ZN O *D NAND2_X1
*CAP
1 *2249:A 2.81749e-05
2 *2248:ZN 2.81749e-05
3 *2249:A *1373:CK 5.59765e-05
4 *2249:A *1703:A 2.75346e-06
5 *2249:A *2204:B1 5.52959e-06
6 *2249:A *811:185 1.32348e-05
7 *66:12 *2249:A 0
*RES
1 *2248:ZN *2249:A 24.2143 
*END

*D_NET *481 0.000197896
*CONN
*I *2252:A1 I *D NAND2_X2
*I *2250:ZN O *D NAND2_X2
*CAP
1 *2252:A1 9.89478e-05
2 *2250:ZN 9.89478e-05
3 *473:32 *2252:A1 0
*RES
1 *2250:ZN *2252:A1 19.8571 
*END

*D_NET *482 0.000148866
*CONN
*I *2252:A2 I *D NAND2_X2
*I *2251:ZN O *D NAND2_X1
*CAP
1 *2252:A2 7.08368e-05
2 *2251:ZN 7.08368e-05
3 *1385:D *2252:A2 0
4 *65:8 *2252:A2 0
5 *473:32 *2252:A2 7.19234e-06
*RES
1 *2251:ZN *2252:A2 27.5714 
*END

*D_NET *483 0.000325021
*CONN
*I *2257:A1 I *D OAI22_X1
*I *2253:ZN O *D NOR2_X1
*CAP
1 *2257:A1 0.000117463
2 *2253:ZN 0.000117463
3 *2257:A1 *2257:A2 2.39679e-06
4 *2257:A1 *2257:B1 8.43215e-07
5 *2257:A1 *2257:B2 1.18589e-06
6 *2257:A1 *1294:130 0
7 *2257:A1 *1303:318 6.78878e-05
8 *2253:A2 *2257:A1 1.77822e-05
*RES
1 *2253:ZN *2257:A1 33.8929 
*END

*D_NET *484 0.000191098
*CONN
*I *2257:A2 I *D OAI22_X1
*I *2254:ZN O *D OAI21_X1
*CAP
1 *2257:A2 6.80845e-05
2 *2254:ZN 6.80845e-05
3 *2257:A2 *2254:B1 2.03657e-05
4 *2257:A2 *2255:B1 0
5 *2257:A2 *2257:B1 1.86809e-06
6 *2257:A2 *2347:A2 0
7 *2257:A2 *1303:318 3.02981e-05
8 *2257:A1 *2257:A2 2.39679e-06
*RES
1 *2254:ZN *2257:A2 28.2857 
*END

*D_NET *485 0.000111585
*CONN
*I *2257:B1 I *D OAI22_X1
*I *2255:ZN O *D OAI21_X1
*CAP
1 *2257:B1 4.16883e-05
2 *2255:ZN 4.16883e-05
3 *2257:B1 *2255:A 0
4 *2257:B1 *2257:B2 2.39679e-06
5 *2257:B1 *487:10 2.31008e-05
6 *2257:B1 *1303:318 0
7 *2257:A1 *2257:B1 8.43215e-07
8 *2257:A2 *2257:B1 1.86809e-06
9 *2346:A1 *2257:B1 0
*RES
1 *2255:ZN *2257:B1 14.6786 
*END

*D_NET *486 0.000202749
*CONN
*I *2257:B2 I *D OAI22_X1
*I *2256:ZN O *D NOR2_X1
*CAP
1 *2257:B2 7.9892e-05
2 *2256:ZN 7.9892e-05
3 *2257:B2 *1303:331 3.93825e-05
4 *2257:A1 *2257:B2 1.18589e-06
5 *2257:B1 *2257:B2 2.39679e-06
*RES
1 *2256:ZN *2257:B2 19.25 
*END

*D_NET *487 0.00100742
*CONN
*I *2258:A1 I *D NAND2_X1
*I *2257:ZN O *D OAI22_X1
*CAP
1 *2258:A1 8.59059e-05
2 *2257:ZN 0.000334668
3 *487:10 0.000420574
4 *2258:A1 *884:44 1.21774e-06
5 *2258:A1 *884:53 4.57435e-05
6 *487:10 *1360:CK 4.68843e-05
7 *487:10 *2255:A 4.54406e-05
8 *487:10 *1278:18 3.88194e-06
9 *487:10 *1303:301 0
10 *487:10 *1303:318 0
11 *1360:D *487:10 0
12 *2257:B1 *487:10 2.31008e-05
13 *2346:A1 *487:10 0
*RES
1 *2257:ZN *487:10 47.5 
2 *487:10 *2258:A1 20.25 
*END

*D_NET *488 0.00159296
*CONN
*I *2277:A1 I *D NAND4_X1
*I *2258:ZN O *D NAND2_X1
*CAP
1 *2277:A1 2.94312e-05
2 *2258:ZN 0
3 *488:8 0.000374245
4 *488:6 0.000344814
5 *2277:A1 *1100:88 0
6 *488:8 *2080:A1 4.50258e-05
7 *488:8 *2080:A2 4.26902e-05
8 *488:8 *2359:A1 1.52083e-06
9 *488:8 *506:8 0
10 *488:8 *609:85 0.000593402
11 *488:8 *609:97 5.80072e-05
12 *488:8 *1111:89 5.56848e-05
13 *488:8 *1113:40 9.05228e-06
14 *2267:B2 *2277:A1 3.90865e-05
*RES
1 *2258:ZN *488:6 10 
2 *488:6 *488:8 53.1786 
3 *488:8 *2277:A1 13.75 
*END

*D_NET *489 0.00019163
*CONN
*I *2263:A1 I *D OAI22_X1
*I *2259:ZN O *D NOR2_X1
*CAP
1 *2263:A1 7.84563e-05
2 *2259:ZN 7.84563e-05
3 *2263:A1 *2263:A2 1.87418e-05
4 *2263:A1 *2263:B1 4.78054e-06
5 *2263:A1 *2263:B2 1.18232e-06
6 *2259:A2 *2263:A1 3.01743e-06
7 *471:57 *2263:A1 6.99525e-06
*RES
1 *2259:ZN *2263:A1 29.4643 
*END

*D_NET *490 0.000337966
*CONN
*I *2263:A2 I *D OAI22_X1
*I *2260:ZN O *D OAI21_X1
*CAP
1 *2263:A2 0.000140039
2 *2260:ZN 0.000140039
3 *2263:A2 *2263:B2 3.91457e-05
4 *2263:A1 *2263:A2 1.87418e-05
5 *471:57 *2263:A2 0
*RES
1 *2260:ZN *2263:A2 26.0357 
*END

*D_NET *491 0.000529201
*CONN
*I *2263:B1 I *D OAI22_X1
*I *2261:ZN O *D OAI21_X1
*CAP
1 *2263:B1 0.000115572
2 *2261:ZN 0.000115572
3 *2263:B1 *2263:B2 1.25215e-05
4 *2263:B1 *493:8 0.000280754
5 *2263:A1 *2263:B1 4.78054e-06
*RES
1 *2261:ZN *2263:B1 36.4286 
*END

*D_NET *492 0.000478324
*CONN
*I *2263:B2 I *D OAI22_X1
*I *2262:ZN O *D NOR2_X1
*CAP
1 *2263:B2 0.000115964
2 *2262:ZN 0.000115964
3 *2263:B2 *1871:B1 2.39679e-06
4 *2263:B2 *2260:B1 0.00019115
5 *2263:A1 *2263:B2 1.18232e-06
6 *2263:A2 *2263:B2 3.91457e-05
7 *2263:B1 *2263:B2 1.25215e-05
*RES
1 *2262:ZN *2263:B2 27.7143 
*END

*D_NET *493 0.00147516
*CONN
*I *2264:A1 I *D NAND2_X1
*I *2263:ZN O *D OAI22_X1
*CAP
1 *2264:A1 4.09905e-06
2 *2263:ZN 0
3 *493:8 0.000410099
4 *493:6 0.000406
5 *2264:A1 *2264:A2 3.65322e-06
6 *2264:A1 *2269:B1 7.72792e-06
7 *493:8 *1368:CK 5.53323e-05
8 *493:8 *598:135 3.70259e-05
9 *493:8 *876:58 7.19948e-05
10 *493:8 *1303:434 0
11 *493:8 *1303:480 8.3283e-05
12 *2228:A1 *493:8 5.51165e-05
13 *2261:B2 *493:8 5.59081e-05
14 *2263:B1 *493:8 0.000280754
15 *461:92 *493:8 4.16195e-06
*RES
1 *2263:ZN *493:6 10 
2 *493:6 *493:8 54.5357 
3 *493:8 *2264:A1 10.75 
*END

*D_NET *494 0.000184173
*CONN
*I *2277:A2 I *D NAND4_X1
*I *2264:ZN O *D NAND2_X1
*CAP
1 *2277:A2 5.77138e-05
2 *2264:ZN 5.77138e-05
3 *2277:A2 *2269:B1 5.52692e-06
4 *2277:A2 *2277:A3 2.78969e-05
5 *2277:A2 *2357:A1 1.18206e-05
6 *2277:A2 *876:58 9.54739e-06
7 *2277:A2 *1303:421 1.39541e-05
*RES
1 *2264:ZN *2277:A2 27.6429 
*END

*D_NET *495 0.000343666
*CONN
*I *2269:A1 I *D OAI22_X1
*I *2265:ZN O *D NOR2_X1
*CAP
1 *2269:A1 0.000108802
2 *2265:ZN 0.000108802
3 *2269:A1 *2269:A2 1.32348e-05
4 *2269:A1 *2269:B1 1.21774e-06
5 *2269:A1 *2269:B2 5.91164e-06
6 *2269:A1 *837:158 4.80288e-05
7 *2269:A1 *837:169 7.66675e-07
8 *2269:A1 *853:27 8.87096e-06
9 *2269:A1 *1299:138 4.80313e-05
*RES
1 *2265:ZN *2269:A1 35.5357 
*END

*D_NET *496 0.000364893
*CONN
*I *2269:A2 I *D OAI22_X1
*I *2266:ZN O *D OAI21_X1
*CAP
1 *2269:A2 7.59771e-05
2 *2266:ZN 7.59771e-05
3 *2269:A2 *837:147 0
4 *2269:A2 *853:27 1.32348e-05
5 *2269:A2 *1299:121 0.000105832
6 *2269:A2 *1299:138 8.06366e-05
7 *2269:A1 *2269:A2 1.32348e-05
*RES
1 *2266:ZN *2269:A2 31 
*END

*D_NET *497 0.000503143
*CONN
*I *2269:B1 I *D OAI22_X1
*I *2267:ZN O *D OAI21_X1
*CAP
1 *2269:B1 0.000146916
2 *2267:ZN 0.000146916
3 *2269:B1 *2264:A2 2.55387e-06
4 *2269:B1 *2267:A 1.32323e-05
5 *2269:B1 *2267:B1 3.09211e-06
6 *2269:B1 *2269:B2 2.75346e-06
7 *2269:B1 *2270:A1 4.45934e-05
8 *2269:B1 *2357:A1 1.41396e-05
9 *2269:B1 *609:97 0
10 *2269:B1 *853:27 3.03114e-05
11 *2269:B1 *853:42 7.83107e-05
12 *2264:A1 *2269:B1 7.72792e-06
13 *2269:A1 *2269:B1 1.21774e-06
14 *2277:A2 *2269:B1 5.52692e-06
15 *152:8 *2269:B1 5.85166e-06
*RES
1 *2267:ZN *2269:B1 39.8929 
*END

*D_NET *498 0.000132267
*CONN
*I *2269:B2 I *D OAI22_X1
*I *2268:ZN O *D NOR2_X1
*CAP
1 *2269:B2 5.05337e-05
2 *2268:ZN 5.05337e-05
3 *2269:B2 *2354:A1 1.34578e-05
4 *2269:B2 *2357:A1 3.09411e-06
5 *2269:B2 *853:27 0
6 *2269:B2 *1299:123 4.21607e-06
7 *2268:A2 *2269:B2 1.76665e-06
8 *2269:A1 *2269:B2 5.91164e-06
9 *2269:B1 *2269:B2 2.75346e-06
*RES
1 *2268:ZN *2269:B2 15.6786 
*END

*D_NET *499 0.000161824
*CONN
*I *2270:A1 I *D NAND2_X1
*I *2269:ZN O *D OAI22_X1
*CAP
1 *2270:A1 5.39616e-05
2 *2269:ZN 5.39616e-05
3 *2270:A1 *853:27 9.30692e-06
4 *2270:A1 *876:58 0
5 *2269:B1 *2270:A1 4.45934e-05
*RES
1 *2269:ZN *2270:A1 26.5357 
*END

*D_NET *500 0.000254132
*CONN
*I *2277:A3 I *D NAND4_X1
*I *2270:ZN O *D NAND2_X1
*CAP
1 *2277:A3 6.19058e-05
2 *2270:ZN 6.19058e-05
3 *2277:A3 *2277:A4 1.25215e-05
4 *2277:A3 *2357:A1 4.75126e-05
5 *2277:A3 *876:58 2.9019e-05
6 *2277:A3 *1100:88 1.33708e-05
7 *2277:A2 *2277:A3 2.78969e-05
*RES
1 *2270:ZN *2277:A3 19.6071 
*END

*D_NET *501 0.000449297
*CONN
*I *2275:A1 I *D OAI22_X1
*I *2271:ZN O *D NOR2_X1
*CAP
1 *2275:A1 0.000108899
2 *2271:ZN 0.000108899
3 *2275:A1 *2276:A1 0.000153289
4 *2275:A1 *506:8 1.20697e-05
5 *2275:A1 *636:76 0
6 *2275:A1 *837:438 3.90891e-05
7 *2275:A1 *1305:42 2.70509e-05
*RES
1 *2271:ZN *2275:A1 34.8571 
*END

*D_NET *502 0.000178262
*CONN
*I *2275:A2 I *D OAI22_X1
*I *2272:ZN O *D OAI21_X1
*CAP
1 *2275:A2 4.12376e-05
2 *2272:ZN 4.12376e-05
3 *2275:A2 *2275:B1 8.97293e-06
4 *2275:A2 *1299:45 0
5 *2275:A2 *1305:42 8.63814e-05
6 *2275:A2 *1305:77 4.32144e-07
*RES
1 *2272:ZN *2275:A2 25.5714 
*END

*D_NET *503 0.000716275
*CONN
*I *2275:B1 I *D OAI22_X1
*I *2273:ZN O *D OAI21_X1
*CAP
1 *2275:B1 0.000163158
2 *2273:ZN 0.000163158
3 *2275:B1 *2275:B2 2.75346e-06
4 *2275:B1 *1299:45 8.35175e-06
5 *2275:B1 *1303:1006 0.000342315
6 *2275:B1 *1305:42 2.27248e-06
7 *2275:B1 *1305:77 0
8 *2272:B2 *2275:B1 8.58678e-06
9 *2275:A2 *2275:B1 8.97293e-06
10 *2364:A2 *2275:B1 1.67075e-05
*RES
1 *2273:ZN *2275:B1 44.3572 
*END

*D_NET *504 0.0002111
*CONN
*I *2275:B2 I *D OAI22_X1
*I *2274:ZN O *D NOR2_X1
*CAP
1 *2275:B2 9.66177e-05
2 *2274:ZN 9.66177e-05
3 *2275:B2 *1404:CK 0
4 *2275:B2 *2272:A 1.32348e-05
5 *2275:B2 *2655:A 0
6 *2275:B2 *598:49 0
7 *2275:B2 *845:46 0
8 *2275:B2 *1303:1012 1.87637e-06
9 *2275:B2 *1305:25 0
10 *2275:B1 *2275:B2 2.75346e-06
*RES
1 *2274:ZN *2275:B2 19.8571 
*END

*D_NET *505 0.000389195
*CONN
*I *2276:A1 I *D NAND2_X1
*I *2275:ZN O *D OAI22_X1
*CAP
1 *2276:A1 5.38594e-05
2 *2275:ZN 5.38594e-05
3 *2276:A1 *2272:A 0.000115116
4 *2276:A1 *506:8 1.88334e-06
5 *2276:A1 *636:67 7.19036e-06
6 *2276:A1 *1305:42 3.99759e-06
7 *2275:A1 *2276:A1 0.000153289
*RES
1 *2275:ZN *2276:A1 29.8214 
*END

*D_NET *506 0.00282694
*CONN
*I *2277:A4 I *D NAND4_X1
*I *2276:ZN O *D NAND2_X1
*CAP
1 *2277:A4 7.52273e-06
2 *2276:ZN 0
3 *506:8 0.00118015
4 *506:6 0.00117263
5 *2277:A4 *1100:88 1.25215e-05
6 *506:8 *2131:B1 1.00163e-05
7 *506:8 *595:32 3.63639e-05
8 *506:8 *598:171 5.41538e-07
9 *506:8 *1303:410 0.000317403
10 *506:8 *1303:421 6.33236e-05
11 *2275:A1 *506:8 1.20697e-05
12 *2276:A1 *506:8 1.88334e-06
13 *2277:A3 *2277:A4 1.25215e-05
14 *488:8 *506:8 0
*RES
1 *2276:ZN *506:6 10 
2 *506:6 *506:8 136.643 
3 *506:8 *2277:A4 11.25 
*END

*D_NET *507 0.00192044
*CONN
*I *2279:A2 I *D NOR2_X1
*I *2278:ZN O *D NAND2_X1
*CAP
1 *2279:A2 0
2 *2278:ZN 5.48696e-05
3 *507:12 0.000465198
4 *507:10 0.000520067
5 *507:10 *647:33 0.000170803
6 *507:12 *1555:B2 1.0303e-05
7 *507:12 *1604:A1 0
8 *507:12 *1604:A2 5.14977e-05
9 *507:12 *1605:A1 0
10 *507:12 *1608:A2 0
11 *507:12 *1614:A3 0
12 *507:12 *2279:A1 1.21774e-06
13 *507:12 *2281:A1 0
14 *507:12 *633:44 0.000413844
15 *507:12 *634:26 1.02269e-05
16 *507:12 *642:25 0
17 *507:12 *672:39 1.73839e-05
18 *2278:A1 *507:10 1.72405e-05
19 *2281:A2 *507:12 0
20 *2282:A3 *507:12 7.16193e-06
21 *2406:B *507:10 0
22 *8:41 *507:12 0
23 *208:10 *507:10 0
24 *210:8 *507:12 0.000158291
25 *210:51 *507:12 1.99513e-05
26 *211:12 *507:10 2.38139e-06
*RES
1 *2278:ZN *507:10 24.0714 
2 *507:10 *507:12 60.75 
3 *507:12 *2279:A2 5 
*END

*D_NET *508 0.000153686
*CONN
*I *2280:A1 I *D NAND2_X1
*I *2282:A1 I *D NAND3_X1
*I *2279:ZN O *D NOR2_X1
*CAP
1 *2280:A1 1.54568e-05
2 *2282:A1 0
3 *2279:ZN 2.81898e-05
4 *508:8 4.36465e-05
5 *2280:A1 *2283:A2 4.37715e-05
6 *2280:A1 *630:22 1.22474e-05
7 *508:8 *630:22 1.03745e-05
8 *2282:A3 *508:8 0
*RES
1 *2279:ZN *508:8 12.9643 
2 *508:8 *2282:A1 10 
3 *508:8 *2280:A1 12.9643 
*END

*D_NET *509 7.84951e-05
*CONN
*I *2281:A1 I *D NAND2_X1
*I *2280:ZN O *D NAND2_X1
*CAP
1 *2281:A1 3.86387e-05
2 *2280:ZN 3.86387e-05
3 *2281:A1 *2283:A1 0
4 *2281:A2 *2281:A1 1.21774e-06
5 *2282:A3 *2281:A1 0
6 *507:12 *2281:A1 0
*RES
1 *2280:ZN *2281:A1 13.75 
*END

*D_NET *510 0.000233002
*CONN
*I *2283:A1 I *D NAND3_X1
*I *2281:ZN O *D NAND2_X1
*CAP
1 *2283:A1 8.75881e-05
2 *2281:ZN 8.75881e-05
3 *2283:A1 *2283:A2 7.19036e-06
4 *2283:A1 *512:14 5.06354e-05
5 *2281:A1 *2283:A1 0
6 *2281:A2 *2283:A1 0
7 *2282:A3 *2283:A1 0
8 *14:46 *2283:A1 0
*RES
1 *2281:ZN *2283:A1 20.3929 
*END

*D_NET *511 0.000142171
*CONN
*I *2283:A2 I *D NAND3_X1
*I *2282:ZN O *D NAND3_X1
*CAP
1 *2283:A2 3.45228e-05
2 *2282:ZN 3.45228e-05
3 *2283:A2 *2283:A3 1.72405e-05
4 *2283:A2 *630:22 4.92317e-06
5 *2280:A1 *2283:A2 4.37715e-05
6 *2282:A3 *2283:A2 0
7 *2283:A1 *2283:A2 7.19036e-06
*RES
1 *2282:ZN *2283:A2 25.0714 
*END

*D_NET *512 0.000679389
*CONN
*I *2284:A1 I *D NAND2_X1
*I *2286:A1 I *D NAND3_X1
*I *2283:ZN O *D NAND3_X1
*CAP
1 *2284:A1 0
2 *2286:A1 5.87819e-05
3 *2283:ZN 0.000166733
4 *512:14 0.000225514
5 *2286:A1 *2286:A3 9.26943e-06
6 *2286:A1 *833:28 1.21774e-06
7 *512:14 *2285:A1 1.72405e-05
8 *512:14 *833:28 1.87369e-06
9 *2281:A2 *512:14 0
10 *2283:A1 *512:14 5.06354e-05
11 *2285:A2 *2286:A1 1.95492e-05
12 *2286:A2 *2286:A1 2.16072e-07
13 *2395:B *2286:A1 1.25189e-05
14 *2395:B *512:14 7.19036e-06
15 *5:79 *512:14 5.64598e-05
16 *5:92 *512:14 3.82593e-05
17 *14:46 *512:14 1.37377e-05
18 *180:10 *512:14 1.91667e-07
*RES
1 *2283:ZN *512:14 37.3214 
2 *512:14 *2286:A1 12.3571 
3 *512:14 *2284:A1 5 
*END

*D_NET *513 0.000109279
*CONN
*I *2285:A1 I *D NAND2_X2
*I *2284:ZN O *D NAND2_X1
*CAP
1 *2285:A1 1.88225e-05
2 *2284:ZN 1.88225e-05
3 *5:92 *2285:A1 5.43932e-05
4 *180:10 *2285:A1 0
5 *512:14 *2285:A1 1.72405e-05
*RES
1 *2284:ZN *2285:A1 22.9643 
*END

*D_NET *514 0.0012157
*CONN
*I *2297:A1 I *D NAND3_X1
*I *2287:A1 I *D NAND2_X1
*I *2285:ZN O *D NAND2_X2
*CAP
1 *2297:A1 0
2 *2287:A1 2.23874e-05
3 *2285:ZN 0
4 *514:12 0.00036268
5 *514:6 0.000340293
6 *2287:A1 *2295:A 6.89028e-05
7 *514:12 *1590:A 3.65659e-06
8 *514:12 *2287:A2 2.16072e-07
9 *514:12 *2290:A1 0.000286517
10 *514:12 *2292:A 2.83954e-05
11 *514:12 *2294:A1 7.15835e-06
12 *514:12 *2296:A1 0
13 *514:12 *2297:A2 2.75346e-06
14 *514:12 *515:8 0
15 *2395:B *514:12 6.46119e-05
16 *5:92 *514:12 8.1183e-06
17 *189:8 *514:12 2.00103e-05
*RES
1 *2285:ZN *514:6 10 
2 *514:6 *514:12 49.0357 
3 *514:12 *2287:A1 18.6429 
4 *514:12 *2297:A1 5 
*END

*D_NET *515 0.000998802
*CONN
*I *2287:A2 I *D NAND2_X1
*I *2297:A2 I *D NAND3_X1
*I *2286:ZN O *D NAND3_X1
*CAP
1 *2287:A2 2.89683e-05
2 *2297:A2 8.22495e-06
3 *2286:ZN 0
4 *515:8 0.000437525
5 *515:6 0.000400332
6 *2287:A2 *2295:A 5.56165e-05
7 *2287:A2 *2296:A1 1.08036e-06
8 *2297:A2 *2297:A3 7.72792e-06
9 *2297:A2 *523:8 7.19036e-06
10 *515:8 *1590:A 1.5249e-05
11 *515:8 *2295:A 1.66988e-05
12 *515:8 *634:10 0
13 *515:8 *634:14 0
14 *2285:A2 *515:8 1.72191e-05
15 *514:12 *2287:A2 2.16072e-07
16 *514:12 *2297:A2 2.75346e-06
17 *514:12 *515:8 0
*RES
1 *2286:ZN *515:6 10 
2 *515:6 *515:8 43 
3 *515:8 *2297:A2 11.25 
4 *515:8 *2287:A2 14.2143 
*END

*D_NET *516 0.000150548
*CONN
*I *2296:A1 I *D NAND2_X1
*I *2287:ZN O *D NAND2_X1
*CAP
1 *2296:A1 6.67908e-05
2 *2287:ZN 6.67908e-05
3 *2296:A1 *2295:A 8.36625e-06
4 *2296:A1 *2296:A2 6.56185e-06
5 *2296:A1 *2298:A1 9.57492e-07
6 *2287:A2 *2296:A1 1.08036e-06
7 *514:12 *2296:A1 0
*RES
1 *2287:ZN *2296:A1 18.0714 
*END

*D_NET *517 0.000218997
*CONN
*I *2289:A I *D INV_X1
*I *2288:ZN O *D NAND2_X1
*CAP
1 *2289:A 4.12704e-05
2 *2288:ZN 4.12704e-05
3 *2289:A *1503:A1 0
4 *2289:A *1505:A1 0
5 *2289:A *2290:A1 5.11191e-06
6 *2289:A *2292:A 0.000101357
7 *1504:A *2289:A 2.99872e-05
*RES
1 *2288:ZN *2289:A 26.4286 
*END

*D_NET *518 4.32418e-05
*CONN
*I *2290:A2 I *D NAND2_X1
*I *2289:ZN O *D INV_X1
*CAP
1 *2290:A2 1.82876e-05
2 *2289:ZN 1.82876e-05
3 *2290:A2 *2293:A 6.66665e-06
*RES
1 *2289:ZN *2290:A2 12.2857 
*END

*D_NET *519 0.000136353
*CONN
*I *2294:A1 I *D NAND2_X1
*I *2290:ZN O *D NAND2_X1
*CAP
1 *2294:A1 6.32206e-05
2 *2290:ZN 6.32206e-05
3 *2294:A1 *2293:A 0
4 *2294:A1 *2294:A2 0
5 *2294:A1 *2297:A3 2.75346e-06
6 *2294:A1 *523:8 0
7 *514:12 *2294:A1 7.15835e-06
*RES
1 *2290:ZN *2294:A1 16.7143 
*END

*D_NET *520 0.000542257
*CONN
*I *2292:A I *D OAI21_X1
*I *2291:ZN O *D INV_X1
*CAP
1 *2292:A 7.04805e-05
2 *2291:ZN 7.04805e-05
3 *2292:A *2290:A1 0.000197589
4 *2292:A *2292:B1 2.75346e-06
5 *2292:A *622:8 3.5628e-06
6 *1504:A *2292:A 3.22858e-06
7 *2289:A *2292:A 0.000101357
8 *189:8 *2292:A 5.41863e-05
9 *189:19 *2292:A 1.02238e-05
10 *514:12 *2292:A 2.83954e-05
*RES
1 *2291:ZN *2292:A 35.75 
*END

*D_NET *521 0.000175492
*CONN
*I *2293:A I *D INV_X1
*I *2292:ZN O *D OAI21_X1
*CAP
1 *2293:A 8.42531e-05
2 *2292:ZN 8.42531e-05
3 *2293:A *2292:B1 3.19164e-07
4 *2290:A2 *2293:A 6.66665e-06
5 *2294:A1 *2293:A 0
*RES
1 *2292:ZN *2293:A 19 
*END

*D_NET *522 1.74261e-05
*CONN
*I *2294:A2 I *D NAND2_X1
*I *2293:ZN O *D INV_X1
*CAP
1 *2294:A2 8.71307e-06
2 *2293:ZN 8.71307e-06
3 *2294:A1 *2294:A2 0
*RES
1 *2293:ZN *2294:A2 10.9286 
*END

*D_NET *523 0.000300652
*CONN
*I *2297:A3 I *D NAND3_X1
*I *2295:A I *D INV_X1
*I *2294:ZN O *D NAND2_X1
*CAP
1 *2297:A3 5.41403e-06
2 *2295:A 4.5291e-05
3 *2294:ZN 1.5885e-05
4 *523:8 6.659e-05
5 *2295:A *2298:A1 2.16072e-07
6 *2287:A1 *2295:A 6.89028e-05
7 *2287:A2 *2295:A 5.56165e-05
8 *2294:A1 *2297:A3 2.75346e-06
9 *2294:A1 *523:8 0
10 *2296:A1 *2295:A 8.36625e-06
11 *2297:A2 *2297:A3 7.72792e-06
12 *2297:A2 *523:8 7.19036e-06
13 *515:8 *2295:A 1.66988e-05
*RES
1 *2294:ZN *523:8 6.67857 
2 *523:8 *2295:A 22.1071 
3 *523:8 *2297:A3 5.75 
*END

*D_NET *524 1.98064e-05
*CONN
*I *2296:A2 I *D NAND2_X1
*I *2295:ZN O *D INV_X1
*CAP
1 *2296:A2 6.62225e-06
2 *2295:ZN 6.62225e-06
3 *2296:A2 *2298:A1 0
4 *2296:A1 *2296:A2 6.56185e-06
*RES
1 *2295:ZN *2296:A2 10.9286 
*END

*D_NET *525 0.000157788
*CONN
*I *2298:A1 I *D NAND2_X1
*I *2296:ZN O *D NAND2_X1
*CAP
1 *2298:A1 7.83071e-05
2 *2296:ZN 7.83071e-05
3 *2298:A1 *2298:A2 0
4 *2295:A *2298:A1 2.16072e-07
5 *2296:A1 *2298:A1 9.57492e-07
6 *2296:A2 *2298:A1 0
*RES
1 *2296:ZN *2298:A1 17.8929 
*END

*D_NET *526 0.000101798
*CONN
*I *2298:A2 I *D NAND2_X1
*I *2297:ZN O *D NAND3_X1
*CAP
1 *2298:A2 5.05345e-05
2 *2297:ZN 5.05345e-05
3 *2298:A2 *2299:A1 7.29164e-07
4 *2298:A1 *2298:A2 0
*RES
1 *2297:ZN *2298:A2 15.1071 
*END

*D_NET *527 0.000104129
*CONN
*I *2299:A1 I *D NAND2_X2
*I *2298:ZN O *D NAND2_X1
*CAP
1 *2299:A1 4.20629e-05
2 *2298:ZN 4.20629e-05
3 *2299:A1 *2322:A1 1.92742e-05
4 *2298:A2 *2299:A1 7.29164e-07
*RES
1 *2298:ZN *2299:A1 14.6786 
*END

*D_NET *528 0.000307651
*CONN
*I *2322:A1 I *D NAND2_X4
*I *2299:ZN O *D NAND2_X2
*CAP
1 *2322:A1 9.03137e-05
2 *2299:ZN 9.03137e-05
3 *2322:A1 *2322:A2 9.52084e-05
4 *2322:A1 *549:8 1.25407e-05
5 *2322:A1 *1298:12 0
6 *2299:A1 *2322:A1 1.92742e-05
*RES
1 *2299:ZN *2322:A1 32.1786 
*END

*D_NET *529 0.000260803
*CONN
*I *2301:A2 I *D NAND2_X1
*I *2305:A2 I *D NAND2_X1
*I *2300:ZN O *D NOR2_X1
*CAP
1 *2301:A2 0
2 *2305:A2 1.59008e-05
3 *2300:ZN 4.8228e-05
4 *529:12 6.41288e-05
5 *2305:A2 *2306:B2 1.77822e-05
6 *2305:A2 *652:37 5.67661e-05
7 *529:12 *2301:A1 2.39679e-06
8 *529:12 *2306:A 0
9 *529:12 *652:37 5.14369e-05
10 *529:12 *716:16 0
11 *2300:A1 *529:12 1.76665e-06
12 *2300:A2 *529:12 2.39679e-06
13 *216:29 *2305:A2 0
14 *216:29 *529:12 0
*RES
1 *2300:ZN *529:12 15.8214 
2 *529:12 *2305:A2 12.9643 
3 *529:12 *2301:A2 10 
*END

*D_NET *530 8.0722e-05
*CONN
*I *2303:A1 I *D NAND2_X1
*I *2301:ZN O *D NAND2_X1
*CAP
1 *2303:A1 3.75975e-05
2 *2301:ZN 3.75975e-05
3 *2303:A1 *2302:B1 0
4 *2303:A1 *2303:A2 5.52692e-06
5 *2303:A1 *2306:A 0
*RES
1 *2301:ZN *2303:A1 13.75 
*END

*D_NET *531 0.000134528
*CONN
*I *2303:A2 I *D NAND2_X1
*I *2302:ZN O *D AOI21_X1
*CAP
1 *2303:A2 6.03941e-05
2 *2302:ZN 6.03941e-05
3 *2303:A2 *2304:A 1.21774e-06
4 *2303:A2 *642:25 0
5 *2302:B2 *2303:A2 6.99525e-06
6 *2303:A1 *2303:A2 5.52692e-06
7 *7:51 *2303:A2 0
*RES
1 *2302:ZN *2303:A2 26.9286 
*END

*D_NET *532 9.84156e-05
*CONN
*I *2304:A I *D INV_X1
*I *2303:ZN O *D NAND2_X1
*CAP
1 *2304:A 4.72448e-05
2 *2303:ZN 4.72448e-05
3 *2304:A *2306:A 2.70833e-06
4 *2303:A2 *2304:A 1.21774e-06
*RES
1 *2303:ZN *2304:A 15.8929 
*END

*D_NET *533 0.000196982
*CONN
*I *2306:A I *D OAI21_X1
*I *2304:ZN O *D INV_X1
*CAP
1 *2306:A 8.7672e-05
2 *2304:ZN 8.7672e-05
3 *2306:A *2305:A1 9.74263e-06
4 *2306:A *2306:B1 8.43215e-07
5 *2306:A *2306:B2 8.34424e-06
6 *2303:A1 *2306:A 0
7 *2304:A *2306:A 2.70833e-06
8 *529:12 *2306:A 0
*RES
1 *2304:ZN *2306:A 19.1786 
*END

*D_NET *534 0.000182945
*CONN
*I *2306:B2 I *D OAI21_X1
*I *2305:ZN O *D NAND2_X1
*CAP
1 *2306:B2 6.74776e-05
2 *2305:ZN 6.74776e-05
3 *2306:B2 *2306:B1 2.39679e-06
4 *2306:B2 *652:37 1.94663e-05
5 *2305:A2 *2306:B2 1.77822e-05
6 *2306:A *2306:B2 8.34424e-06
7 *216:29 *2306:B2 0
*RES
1 *2305:ZN *2306:B2 27.8929 
*END

*D_NET *535 0.000353443
*CONN
*I *2307:B1 I *D AOI21_X1
*I *2308:B2 I *D OAI21_X1
*I *2306:ZN O *D OAI21_X1
*CAP
1 *2307:B1 2.17525e-05
2 *2308:B2 5.00139e-05
3 *2306:ZN 6.47368e-05
4 *535:6 0.000136503
5 *2307:B1 *2307:B2 1.10138e-05
6 *2307:B1 *2308:A 5.25939e-06
7 *2307:B1 *715:10 0
8 *2308:B2 *2307:B2 1.45936e-05
9 *2308:B2 *772:10 2.41529e-05
10 *535:6 *1570:A 3.19164e-07
11 *535:6 *1658:A 2.52965e-06
12 *535:6 *2306:B1 2.25683e-05
13 *535:6 *715:10 0
14 *535:6 *772:10 0
*RES
1 *2306:ZN *535:6 11.25 
2 *535:6 *2308:B2 10.8929 
3 *535:6 *2307:B1 8.17857 
*END

*D_NET *536 6.98075e-05
*CONN
*I *2308:A I *D OAI21_X1
*I *2307:ZN O *D AOI21_X1
*CAP
1 *2308:A 2.2306e-05
2 *2307:ZN 2.2306e-05
3 *2308:A *2307:B2 6.63802e-06
4 *2308:A *715:10 0
5 *2308:A *813:16 1.32981e-05
6 *2307:B1 *2308:A 5.25939e-06
*RES
1 *2307:ZN *2308:A 13.1071 
*END

*D_NET *537 0.000233842
*CONN
*I *2320:A1 I *D NAND2_X1
*I *2308:ZN O *D OAI21_X1
*CAP
1 *2320:A1 6.65324e-05
2 *2308:ZN 6.65324e-05
3 *2320:A1 *2320:A2 7.16188e-07
4 *2320:A1 *772:10 7.93499e-06
5 *2320:A1 *772:14 6.75716e-06
6 *2320:A1 *813:16 8.53685e-05
*RES
1 *2308:ZN *2320:A1 19.1786 
*END

*D_NET *538 0.000214741
*CONN
*I *2310:A I *D AOI21_X1
*I *2309:ZN O *D OAI22_X1
*CAP
1 *2310:A 5.70971e-05
2 *2309:ZN 5.70971e-05
3 *2310:A *629:27 2.39679e-06
4 *2310:A *629:38 6.11168e-05
5 *2310:A *642:40 2.07669e-05
6 *2310:A *642:51 4.30918e-06
7 *2309:B2 *2310:A 1.04365e-05
8 *16:19 *2310:A 0
9 *237:8 *2310:A 1.52083e-06
*RES
1 *2309:ZN *2310:A 28.0357 
*END

*D_NET *539 0.0001204
*CONN
*I *2319:A1 I *D AND2_X1
*I *2310:ZN O *D AOI21_X1
*CAP
1 *2319:A1 4.38238e-05
2 *2310:ZN 4.38238e-05
3 *2319:A1 *2319:A2 2.39679e-06
4 *2319:A1 *629:27 1.99237e-05
5 *2313:A2 *2319:A1 1.04314e-05
*RES
1 *2310:ZN *2319:A1 15.6786 
*END

*D_NET *540 0.000153182
*CONN
*I *2312:A I *D OAI21_X1
*I *2311:ZN O *D NAND2_X1
*CAP
1 *2312:A 3.69088e-05
2 *2311:ZN 3.69088e-05
3 *2312:A *2312:B2 9.43218e-06
4 *2312:A *2320:A2 0
5 *2312:A *677:31 6.75352e-05
6 *2312:B1 *2312:A 2.39679e-06
*RES
1 *2311:ZN *2312:A 24.8929 
*END

*D_NET *541 0.000444186
*CONN
*I *2318:A1 I *D NOR3_X1
*I *2312:ZN O *D OAI21_X1
*CAP
1 *2318:A1 0.00010419
2 *2312:ZN 0.00010419
3 *2318:A1 *2312:B2 1.94479e-06
4 *2318:A1 *2319:A2 6.84295e-05
5 *2318:A1 *2320:A2 0.000106624
6 *2318:A1 *647:48 5.52124e-06
7 *2318:A1 *677:31 0
8 *2318:A1 *677:33 0
9 *2318:A1 *772:14 0
10 *8:33 *2318:A1 5.32869e-05
*RES
1 *2312:ZN *2318:A1 34.8571 
*END

*D_NET *542 8.43343e-05
*CONN
*I *2314:A I *D OAI21_X1
*I *2313:ZN O *D NAND2_X1
*CAP
1 *2314:A 3.72566e-05
2 *2313:ZN 3.72566e-05
3 *2314:A *2313:A1 2.39679e-06
4 *2314:A *2314:B2 7.16188e-07
5 *2314:A *2318:A2 7.29164e-07
6 *2314:A *629:38 0
7 *2313:A2 *2314:A 5.97904e-06
*RES
1 *2313:ZN *2314:A 15.0357 
*END

*D_NET *543 9.89282e-05
*CONN
*I *2318:A2 I *D NOR3_X1
*I *2314:ZN O *D OAI21_X1
*CAP
1 *2318:A2 3.65884e-05
2 *2314:ZN 3.65884e-05
3 *2318:A2 *2314:B2 1.5896e-05
4 *2313:A2 *2318:A2 9.12627e-06
5 *2314:A *2318:A2 7.29164e-07
*RES
1 *2314:ZN *2318:A2 14.6786 
*END

*D_NET *544 0.000128302
*CONN
*I *2317:A1 I *D NAND2_X1
*I *2315:ZN O *D OR2_X1
*CAP
1 *2317:A1 3.91601e-05
2 *2315:ZN 3.91601e-05
3 *2317:A1 *2317:A2 1.21774e-06
4 *2317:A1 *637:51 9.67518e-06
5 *2317:A1 *644:47 3.90891e-05
*RES
1 *2315:ZN *2317:A1 15.3571 
*END

*D_NET *545 5.99872e-05
*CONN
*I *2317:A2 I *D NAND2_X1
*I *2316:ZN O *D NAND2_X1
*CAP
1 *2317:A2 2.22898e-05
2 *2316:ZN 2.22898e-05
3 *2317:A2 *637:32 4.52313e-06
4 *2317:A2 *637:51 7.54866e-06
5 *2317:A2 *644:47 2.11815e-06
6 *2317:A1 *2317:A2 1.21774e-06
*RES
1 *2316:ZN *2317:A2 12.8571 
*END

*D_NET *546 0.000272738
*CONN
*I *2318:A3 I *D NOR3_X1
*I *2317:ZN O *D NAND2_X1
*CAP
1 *2318:A3 9.4956e-05
2 *2317:ZN 9.4956e-05
3 *2318:A3 *677:33 0
4 *2318:A3 *677:39 0
5 *8:33 *2318:A3 8.28263e-05
*RES
1 *2317:ZN *2318:A3 31.7857 
*END

*D_NET *547 0.000183463
*CONN
*I *2319:A2 I *D AND2_X1
*I *2318:ZN O *D NOR3_X1
*CAP
1 *2319:A2 1.82375e-05
2 *2318:ZN 1.82375e-05
3 *2319:A2 *629:27 7.19036e-06
4 *2318:A1 *2319:A2 6.84295e-05
5 *2319:A1 *2319:A2 2.39679e-06
6 *8:33 *2319:A2 6.89712e-05
*RES
1 *2318:ZN *2319:A2 24.3929 
*END

*D_NET *548 0.000289617
*CONN
*I *2320:A2 I *D NAND2_X1
*I *2319:ZN O *D AND2_X1
*CAP
1 *2320:A2 7.07839e-05
2 *2319:ZN 7.07839e-05
3 *2320:A2 *2312:B2 1.54941e-05
4 *2320:A2 *677:31 0
5 *2320:A2 *772:14 7.72537e-06
6 *2320:A2 *813:16 3.19164e-07
7 *2312:A *2320:A2 0
8 *2318:A1 *2320:A2 0.000106624
9 *2320:A1 *2320:A2 7.16188e-07
10 *8:33 *2320:A2 1.71706e-05
*RES
1 *2319:ZN *2320:A2 30.5 
*END

*D_NET *549 0.00233008
*CONN
*I *2321:A I *D INV_X1
*I *2320:ZN O *D NAND2_X1
*CAP
1 *2321:A 1.8552e-05
2 *2320:ZN 0
3 *549:8 0.000786521
4 *549:6 0.000767969
5 *2321:A *2322:A2 0
6 *549:8 *1523:A3 2.07756e-06
7 *549:8 *1618:A1 0
8 *549:8 *2299:A2 8.101e-05
9 *549:8 *634:26 3.57409e-05
10 *549:8 *674:12 0
11 *549:8 *677:12 7.53452e-05
12 *549:8 *677:29 0
13 *549:8 *684:27 0
14 *2322:A1 *549:8 1.25407e-05
15 *8:33 *549:8 0.000550325
*RES
1 *2320:ZN *549:6 10 
2 *549:6 *549:8 95.9286 
3 *549:8 *2321:A 11.75 
*END

*D_NET *550 0.000173029
*CONN
*I *2322:A2 I *D NAND2_X4
*I *2321:ZN O *D INV_X1
*CAP
1 *2322:A2 3.89105e-05
2 *2321:ZN 3.89105e-05
3 *2321:A *2322:A2 0
4 *2322:A1 *2322:A2 9.52084e-05
*RES
1 *2321:ZN *2322:A2 25.75 
*END

*D_NET *552 7.06614e-05
*CONN
*I *2326:A1 I *D NAND2_X1
*I *2324:ZN O *D NAND2_X1
*CAP
1 *2326:A1 2.74882e-05
2 *2324:ZN 2.74882e-05
3 *2326:A1 *2324:A1 2.61469e-06
4 *2326:A1 *2326:A2 5.34233e-06
5 *2324:A2 *2326:A1 7.72792e-06
*RES
1 *2324:ZN *2326:A1 13.3571 
*END

*D_NET *553 7.04333e-05
*CONN
*I *2326:A2 I *D NAND2_X1
*I *2325:ZN O *D NAND2_X1
*CAP
1 *2326:A2 3.19366e-05
2 *2325:ZN 3.19366e-05
3 *2325:A1 *2326:A2 1.21774e-06
4 *2326:A1 *2326:A2 5.34233e-06
5 *72:8 *2326:A2 0
*RES
1 *2325:ZN *2326:A2 13.5357 
*END

*D_NET *554 0.000168002
*CONN
*I *2329:A1 I *D NAND2_X1
*I *2327:ZN O *D NAND2_X1
*CAP
1 *2329:A1 3.7254e-05
2 *2327:ZN 3.7254e-05
3 *2329:A1 *1314:65 9.34938e-05
*RES
1 *2327:ZN *2329:A1 25 
*END

*D_NET *555 7.91592e-05
*CONN
*I *2329:A2 I *D NAND2_X1
*I *2328:ZN O *D NAND2_X1
*CAP
1 *2329:A2 3.61673e-05
2 *2328:ZN 3.61673e-05
3 *2329:A2 *1294:204 6.82458e-06
*RES
1 *2328:ZN *2329:A2 13.75 
*END

*D_NET *556 0.000123162
*CONN
*I *2332:A1 I *D NAND2_X1
*I *2330:ZN O *D NAND2_X1
*CAP
1 *2332:A1 4.67031e-05
2 *2330:ZN 4.67031e-05
3 *2332:A1 *1506:A 1.01993e-05
4 *2332:A1 *2332:A2 1.32348e-05
5 *1376:D *2332:A1 0
6 *2262:A2 *2332:A1 6.32202e-06
*RES
1 *2330:ZN *2332:A1 25.8214 
*END

*D_NET *557 5.13823e-05
*CONN
*I *2332:A2 I *D NAND2_X1
*I *2331:ZN O *D NAND2_X1
*CAP
1 *2332:A2 1.64438e-05
2 *2331:ZN 1.64438e-05
3 *2331:A1 *2332:A2 2.75346e-06
4 *2332:A1 *2332:A2 1.32348e-05
5 *56:8 *2332:A2 2.50642e-06
*RES
1 *2331:ZN *2332:A2 12.1786 
*END

*D_NET *558 0.000115576
*CONN
*I *2335:A1 I *D NAND2_X1
*I *2333:ZN O *D NAND2_X1
*CAP
1 *2335:A1 1.51612e-05
2 *2333:ZN 1.51612e-05
3 *2335:A1 *2335:A2 3.0203e-05
4 *152:8 *2335:A1 5.50501e-05
*RES
1 *2333:ZN *2335:A1 22.9643 
*END

*D_NET *559 0.000259953
*CONN
*I *2335:A2 I *D NAND2_X1
*I *2334:ZN O *D NAND2_X1
*CAP
1 *2335:A2 6.03168e-05
2 *2334:ZN 6.03168e-05
3 *2335:A2 *2333:A1 2.39679e-06
4 *2335:A2 *2681:A 6.75352e-05
5 *2335:A2 *1303:461 0
6 *2335:A2 *1315:29 2.94113e-05
7 *2335:A1 *2335:A2 3.0203e-05
8 *152:8 *2335:A2 8.34049e-06
9 *436:69 *2335:A2 1.43238e-06
*RES
1 *2334:ZN *2335:A2 28.4643 
*END

*D_NET *560 0.000203305
*CONN
*I *2338:A1 I *D NAND2_X1
*I *2336:ZN O *D NAND2_X1
*CAP
1 *2338:A1 9.72617e-05
2 *2336:ZN 9.72617e-05
3 *2338:A1 *2338:A2 8.43215e-07
4 *389:33 *2338:A1 0
5 *424:33 *2338:A1 7.93806e-06
*RES
1 *2336:ZN *2338:A1 20.1071 
*END

*D_NET *561 0.000149044
*CONN
*I *2338:A2 I *D NAND2_X1
*I *2337:ZN O *D NAND2_X1
*CAP
1 *2338:A2 5.77871e-05
2 *2337:ZN 5.77871e-05
3 *1360:D *2338:A2 0
4 *2337:A2 *2338:A2 9.5257e-06
5 *2338:A1 *2338:A2 8.43215e-07
6 *40:8 *2338:A2 2.31008e-05
7 *389:33 *2338:A2 0
8 *424:33 *2338:A2 0
*RES
1 *2337:ZN *2338:A2 26.7143 
*END

*D_NET *562 0.00034169
*CONN
*I *2341:A1 I *D NAND2_X1
*I *2339:ZN O *D NAND2_X1
*CAP
1 *2341:A1 0.000158288
2 *2339:ZN 0.000158288
3 *2341:A1 *1352:CK 0
4 *2341:A1 *2341:A2 5.52692e-06
5 *412:32 *2341:A1 1.95864e-05
*RES
1 *2339:ZN *2341:A1 26.9643 
*END

*D_NET *563 5.89615e-05
*CONN
*I *2341:A2 I *D NAND2_X1
*I *2340:ZN O *D NAND2_X1
*CAP
1 *2341:A2 2.30148e-05
2 *2340:ZN 2.30148e-05
3 *2340:A1 *2341:A2 7.40507e-06
4 *2341:A1 *2341:A2 5.52692e-06
5 *412:32 *2341:A2 0
*RES
1 *2340:ZN *2341:A2 12.8571 
*END

*D_NET *564 0.000629648
*CONN
*I *2344:A1 I *D NAND2_X1
*I *2342:ZN O *D NAND2_X1
*CAP
1 *2344:A1 0.000255505
2 *2342:ZN 0.000255505
3 *2344:A1 *1352:CK 0
4 *2344:A1 *1464:CK 2.07643e-05
5 *1464:D *2344:A1 4.51285e-05
6 *401:59 *2344:A1 5.27445e-05
*RES
1 *2342:ZN *2344:A1 39.1786 
*END

*D_NET *565 0.000137829
*CONN
*I *2344:A2 I *D NAND2_X1
*I *2343:ZN O *D NAND2_X1
*CAP
1 *2344:A2 6.89145e-05
2 *2343:ZN 6.89145e-05
3 *2343:A2 *2344:A2 0
*RES
1 *2343:ZN *2344:A2 26.3571 
*END

*D_NET *566 0.000249377
*CONN
*I *2347:A1 I *D NAND2_X1
*I *2345:ZN O *D NAND2_X1
*CAP
1 *2347:A1 7.21886e-05
2 *2345:ZN 7.21886e-05
3 *2347:A1 *595:68 1.20555e-05
4 *2347:A1 *1307:80 5.56073e-05
5 *1456:D *2347:A1 3.73373e-05
6 *401:59 *2347:A1 0
*RES
1 *2345:ZN *2347:A1 19.8571 
*END

*D_NET *567 0.000100515
*CONN
*I *2347:A2 I *D NAND2_X1
*I *2346:ZN O *D NAND2_X1
*CAP
1 *2347:A2 4.86775e-05
2 *2346:ZN 4.86775e-05
3 *2347:A2 *1352:CK 0
4 *2347:A2 *1360:CK 2.14728e-06
5 *2347:A2 *1307:84 1.0131e-06
6 *2257:A2 *2347:A2 0
*RES
1 *2346:ZN *2347:A2 24.3214 
*END

*D_NET *568 6.55112e-05
*CONN
*I *2350:A1 I *D NAND2_X1
*I *2348:ZN O *D NAND2_X1
*CAP
1 *2350:A1 2.41258e-05
2 *2348:ZN 2.41258e-05
3 *2350:A1 *2348:A1 8.97657e-06
4 *2350:A1 *2350:A2 5.52959e-06
5 *2348:A2 *2350:A1 2.75346e-06
*RES
1 *2348:ZN *2350:A1 13.6071 
*END

*D_NET *569 5.89852e-05
*CONN
*I *2350:A2 I *D NAND2_X1
*I *2349:ZN O *D NAND2_X1
*CAP
1 *2350:A2 2.07895e-05
2 *2349:ZN 2.07895e-05
3 *2350:A2 *2348:A1 0
4 *2349:A1 *2350:A2 7.19036e-06
5 *2350:A1 *2350:A2 5.52959e-06
6 *436:52 *2350:A2 4.68638e-06
*RES
1 *2349:ZN *2350:A2 12.6786 
*END

*D_NET *570 0.000144903
*CONN
*I *2353:A1 I *D NAND2_X1
*I *2351:ZN O *D NAND2_X1
*CAP
1 *2353:A1 3.03092e-05
2 *2351:ZN 3.03092e-05
3 *2353:A1 *2353:A2 5.52959e-06
4 *2353:A1 *1113:12 1.83411e-06
5 *2353:A1 *1299:104 1.72405e-05
6 *2353:A1 *1299:121 4.24402e-05
7 *1440:D *2353:A1 1.72405e-05
*RES
1 *2351:ZN *2353:A1 24.2143 
*END

*D_NET *571 0.00011329
*CONN
*I *2353:A2 I *D NAND2_X1
*I *2352:ZN O *D NAND2_X1
*CAP
1 *2353:A2 4.4275e-05
2 *2352:ZN 4.4275e-05
3 *2353:A2 *2351:A1 1.80284e-05
4 *2353:A2 *1111:61 1.18232e-06
5 *2353:A2 *1113:12 0
6 *2353:A1 *2353:A2 5.52959e-06
*RES
1 *2352:ZN *2353:A2 15.2143 
*END

*D_NET *572 5.6946e-05
*CONN
*I *2356:A1 I *D NAND2_X1
*I *2354:ZN O *D NAND2_X1
*CAP
1 *2356:A1 2.57359e-05
2 *2354:ZN 2.57359e-05
3 *2356:A1 *2356:A2 8.43215e-07
4 *2356:A1 *1100:77 0
5 *2356:A1 *1100:86 2.39679e-06
6 *112:12 *2356:A1 2.23415e-06
*RES
1 *2354:ZN *2356:A1 12.8571 
*END

*D_NET *573 0.000161709
*CONN
*I *2356:A2 I *D NAND2_X1
*I *2355:ZN O *D NAND2_X1
*CAP
1 *2356:A2 6.23502e-05
2 *2355:ZN 6.23502e-05
3 *2356:A2 *2266:A 3.30475e-06
4 *2356:A2 *876:43 1.45805e-05
5 *2356:A2 *1100:77 1.48912e-05
6 *2356:A2 *1100:86 1.86809e-06
7 *2356:A2 *1102:18 1.52083e-06
8 *2356:A2 *1312:22 0
9 *2356:A1 *2356:A2 8.43215e-07
10 *112:12 *2356:A2 0
*RES
1 *2355:ZN *2356:A2 26.9286 
*END

*D_NET *574 0.000110239
*CONN
*I *2359:A1 I *D NAND2_X1
*I *2357:ZN O *D NAND2_X1
*CAP
1 *2359:A1 3.58112e-05
2 *2357:ZN 3.58112e-05
3 *2359:A1 *2359:A2 1.21774e-06
4 *2359:A1 *609:97 2.95441e-05
5 *2359:A1 *1100:88 0
6 *2267:B2 *2359:A1 6.33411e-06
7 *488:8 *2359:A1 1.52083e-06
*RES
1 *2357:ZN *2359:A1 24.4286 
*END

*D_NET *575 0.000185747
*CONN
*I *2359:A2 I *D NAND2_X1
*I *2358:ZN O *D NAND2_X1
*CAP
1 *2359:A2 7.60647e-05
2 *2358:ZN 7.60647e-05
3 *2359:A2 *2358:A1 0
4 *2359:A2 *1100:88 1.16072e-05
5 *2267:B2 *2359:A2 1.42309e-05
6 *2359:A1 *2359:A2 1.21774e-06
7 *104:6 *2359:A2 6.56185e-06
*RES
1 *2358:ZN *2359:A2 18.7143 
*END

*D_NET *576 5.30734e-05
*CONN
*I *2362:A1 I *D NAND2_X1
*I *2360:ZN O *D NAND2_X1
*CAP
1 *2362:A1 1.15431e-05
2 *2360:ZN 1.15431e-05
3 *2362:A1 *1299:45 2.99872e-05
*RES
1 *2360:ZN *2362:A1 21.6071 
*END

*D_NET *577 0.000255888
*CONN
*I *2362:A2 I *D NAND2_X1
*I *2361:ZN O *D NAND2_X1
*CAP
1 *2362:A2 4.91895e-05
2 *2361:ZN 4.91895e-05
3 *2362:A2 *2018:A2 2.96955e-05
4 *2362:A2 *837:438 2.75346e-06
5 *2362:A2 *837:449 1.0682e-05
6 *2362:A2 *1075:38 7.16188e-07
7 *2362:A2 *1075:47 4.6613e-07
8 *2362:A2 *1075:53 4.18985e-05
9 *2362:A2 *1077:8 0
10 *2362:A2 *1299:60 2.04312e-06
11 *1416:D *2362:A2 2.6814e-05
12 *2271:A2 *2362:A2 4.24402e-05
*RES
1 *2361:ZN *2362:A2 27.5714 
*END

*D_NET *578 0.000103555
*CONN
*I *2365:A1 I *D NAND2_X1
*I *2363:ZN O *D NAND2_X1
*CAP
1 *2365:A1 2.99448e-05
2 *2363:ZN 2.99448e-05
3 *2365:A1 *2365:A2 2.99872e-05
4 *2365:A1 *845:54 1.36786e-05
*RES
1 *2363:ZN *2365:A1 23.6429 
*END

*D_NET *579 0.000131506
*CONN
*I *2365:A2 I *D NAND2_X1
*I *2364:ZN O *D NAND2_X1
*CAP
1 *2365:A2 2.20704e-05
2 *2364:ZN 2.20704e-05
3 *2365:A2 *845:54 5.59765e-05
4 *2364:A2 *2365:A2 1.40196e-06
5 *2365:A1 *2365:A2 2.99872e-05
*RES
1 *2364:ZN *2365:A2 23.7143 
*END

*D_NET *580 9.95971e-05
*CONN
*I *2368:A1 I *D NAND2_X1
*I *2366:ZN O *D NAND2_X1
*CAP
1 *2368:A1 3.4681e-05
2 *2366:ZN 3.4681e-05
3 *2368:A1 *633:100 3.02351e-05
4 *2368:A1 *1299:19 0
5 *2368:A1 *1299:34 0
*RES
1 *2366:ZN *2368:A1 23.6429 
*END

*D_NET *581 0.000136773
*CONN
*I *2368:A2 I *D NAND2_X1
*I *2367:ZN O *D NAND2_X1
*CAP
1 *2368:A2 6.43126e-05
2 *2367:ZN 6.43126e-05
3 *2368:A2 *633:92 9.57492e-07
4 *2368:A2 *633:100 7.19036e-06
*RES
1 *2367:ZN *2368:A2 16.9286 
*END

*D_NET *582 6.21131e-05
*CONN
*I *2371:A1 I *D NAND2_X1
*I *2369:ZN O *D NAND2_X1
*CAP
1 *2371:A1 3.05007e-05
2 *2369:ZN 3.05007e-05
3 *2371:A1 *1303:885 0
4 *2370:A2 *2371:A1 1.11168e-06
*RES
1 *2369:ZN *2371:A1 22.9643 
*END

*D_NET *583 0.000181316
*CONN
*I *2371:A2 I *D NAND2_X1
*I *2370:ZN O *D NAND2_X1
*CAP
1 *2371:A2 6.97918e-05
2 *2370:ZN 6.97918e-05
3 *2371:A2 *2369:A1 2.39679e-06
4 *2371:A2 *2369:A2 1.54797e-05
5 *2371:A2 *2370:A1 4.96519e-06
6 *2371:A2 *1303:889 0
7 *2370:A2 *2371:A2 1.88906e-05
*RES
1 *2370:ZN *2371:A2 19.0714 
*END

*D_NET *584 0.000440545
*CONN
*I *2373:B1 I *D AOI21_X1
*I *2372:ZN O *D XNOR2_X1
*CAP
1 *2373:B1 0.000157416
2 *2372:ZN 0.000157416
3 *2373:B1 *1731:B2 3.23338e-05
4 *2373:B1 *600:61 2.75346e-06
5 *2373:B1 *600:72 3.56223e-05
6 *2373:B1 *603:53 1.21774e-06
7 *2373:B1 *603:64 2.24822e-06
8 *1488:A2 *2373:B1 7.66675e-07
9 *2391:A *2373:B1 5.07716e-05
*RES
1 *2372:ZN *2373:B1 40.2857 
*END

*D_NET *585 0.0002487
*CONN
*I *2375:A1 I *D OR2_X1
*I *2376:A1 I *D NAND2_X1
*I *2374:ZN O *D NOR3_X1
*CAP
1 *2375:A1 0
2 *2376:A1 6.62225e-06
3 *2374:ZN 6.80998e-05
4 *585:6 7.47221e-05
5 *2376:A1 *1282:17 6.56185e-06
6 *585:6 *2376:A2 2.16072e-07
7 *585:6 *2377:A3 0
8 *585:6 *1282:34 2.39679e-06
9 *585:6 *1282:45 9.00811e-05
10 *154:8 *585:6 0
11 *154:27 *585:6 0
*RES
1 *2374:ZN *585:6 13.75 
2 *585:6 *2376:A1 5.92857 
3 *585:6 *2375:A1 5 
*END

*D_NET *586 0.000122606
*CONN
*I *2377:A1 I *D NAND3_X1
*I *2375:ZN O *D OR2_X1
*CAP
1 *2377:A1 5.24117e-05
2 *2375:ZN 5.24117e-05
3 *2377:A1 *2381:A 1.77822e-05
*RES
1 *2375:ZN *2377:A1 25.6786 
*END

*D_NET *587 0.000100393
*CONN
*I *2377:A3 I *D NAND3_X1
*I *2376:ZN O *D NAND2_X1
*CAP
1 *2377:A3 4.05821e-05
2 *2376:ZN 4.05821e-05
3 *2377:A3 *2377:A2 2.75346e-06
4 *2377:A3 *1282:8 0
5 *2377:A3 *1282:17 2.70833e-06
6 *154:8 *2377:A3 1.37673e-05
7 *585:6 *2377:A3 0
*RES
1 *2376:ZN *2377:A3 14.8929 
*END

*D_NET *588 0.000321872
*CONN
*I *2381:A I *D OAI21_X1
*I *2377:ZN O *D NAND3_X1
*CAP
1 *2381:A 6.68722e-05
2 *2377:ZN 6.68722e-05
3 *2381:A *2377:A2 0.000158431
4 *2381:A *2381:B1 2.75346e-06
5 *2381:A *1300:14 1.43238e-06
6 *2377:A1 *2381:A 1.77822e-05
7 *2687:A *2381:A 7.72792e-06
*RES
1 *2377:ZN *2381:A 30.5 
*END

*D_NET *589 0.000188709
*CONN
*I *2379:C2 I *D OAI221_X1
*I *2378:ZN O *D NAND2_X1
*CAP
1 *2379:C2 3.4497e-05
2 *2378:ZN 3.4497e-05
3 *2379:C2 *2379:B2 4.16464e-05
4 *2379:C2 *2379:C1 8.43215e-07
5 *2379:C2 *596:29 2.39679e-06
6 *2379:C2 *596:42 7.48282e-05
*RES
1 *2378:ZN *2379:C2 25.0714 
*END

*D_NET *590 0.000546775
*CONN
*I *2380:A I *D XNOR2_X1
*I *2379:ZN O *D OAI221_X1
*CAP
1 *2380:A 0.000115822
2 *2379:ZN 0.000115822
3 *2380:A *596:29 8.43215e-07
4 *2380:A *1300:27 0.000154747
5 *2380:A *1303:10 0
6 *2380:A *1304:106 0.000159541
*RES
1 *2379:ZN *2380:A 28.75 
*END

*D_NET *591 8.39505e-05
*CONN
*I *2381:B1 I *D OAI21_X1
*I *2380:ZN O *D XNOR2_X1
*CAP
1 *2381:B1 3.08023e-05
2 *2380:ZN 3.08023e-05
3 *2381:B1 *1300:14 1.21774e-06
4 *2381:B1 *1300:27 1.64551e-05
5 *2381:B1 *1322:24 1.91954e-06
6 *2381:A *2381:B1 2.75346e-06
*RES
1 *2380:ZN *2381:B1 13.75 
*END

*D_NET *592 0.00023276
*CONN
*I *2383:B1 I *D AOI21_X1
*I *2382:ZN O *D XNOR2_X1
*CAP
1 *2383:B1 5.33361e-05
2 *2382:ZN 5.33361e-05
3 *2383:B1 *1576:A1 9.62051e-07
4 *2383:B1 *1731:B2 0
5 *2383:B1 *602:16 0
6 *2383:B1 *692:8 1.91498e-06
7 *2383:B1 *740:10 0.00012016
8 *2383:B1 *833:28 2.83434e-06
9 *2382:B *2383:B1 2.16072e-07
*RES
1 *2382:ZN *2383:B1 27.6071 
*END

*D_NET *594 0.00040016
*CONN
*I *1471:A1 I *D NAND2_X4
*I *1536:B1 I *D OAI21_X1
*I *1468:ZN O *D INV_X2
*CAP
1 *1471:A1 5.46491e-05
2 *1536:B1 7.20046e-05
3 *1468:ZN 0
4 *594:4 0.000126654
5 *1471:A1 *1471:A2 7.35445e-06
6 *1536:B1 *627:10 2.19303e-05
7 *1536:B1 *643:8 8.92965e-05
8 *1468:A *1471:A1 2.39679e-06
9 *1468:A *1536:B1 6.32461e-06
10 *205:10 *1536:B1 1.95497e-05
*RES
1 *1468:ZN *594:4 5 
2 *594:4 *1536:B1 27.4643 
3 *594:4 *1471:A1 10.6786 
*END

*D_NET *596 0.00358135
*CONN
*I *1773:A1 I *D NOR2_X1
*I *2374:A3 I *D NOR3_X1
*I *1471:A2 I *D NAND2_X4
*I *2379:A I *D OAI221_X1
*I *1939:A I *D XNOR2_X1
*I *1470:ZN O *D INV_X4
*CAP
1 *1773:A1 0.000290851
2 *2374:A3 0.000103862
3 *1471:A2 0.000237014
4 *2379:A 0
5 *1939:A 0
6 *1470:ZN 4.62266e-05
7 *596:42 0.000523896
8 *596:29 0.000397068
9 *596:23 0.000254052
10 *596:21 0.000375867
11 *596:8 9.12383e-05
12 *1773:A1 *1773:A2 1.07828e-05
13 *1773:A1 *1781:A1 2.70833e-06
14 *1773:A1 *1781:A2 5.33113e-06
15 *1773:A1 *2026:A2 5.27632e-05
16 *1773:A1 *636:8 0
17 *1773:A1 *837:12 0.000120658
18 *1773:A1 *852:8 1.32732e-05
19 *1773:A1 *1074:16 0
20 *1773:A1 *1087:14 1.28122e-06
21 *1773:A1 *1280:99 4.68709e-05
22 *1773:A1 *1281:37 0
23 *1773:A1 *1282:83 6.48216e-07
24 *1773:A1 *1304:88 1.43238e-06
25 *2374:A3 *1327:RN 1.88535e-05
26 *2374:A3 *2379:B2 0.000155461
27 *596:8 *1470:A 0
28 *596:8 *1941:A1 8.26038e-06
29 *596:8 *2405:A 0
30 *596:8 *1281:14 1.6252e-05
31 *596:21 *1941:A1 3.19164e-07
32 *596:21 *1281:14 4.59693e-05
33 *596:21 *1282:45 4.30918e-06
34 *596:23 *1941:A1 0
35 *596:23 *2379:C1 2.89018e-05
36 *596:23 *837:12 6.26024e-05
37 *596:29 *1941:A1 0
38 *596:29 *1941:A2 0
39 *596:29 *1944:S 0
40 *596:29 *2379:B1 2.39679e-06
41 *596:29 *2379:B2 1.36837e-05
42 *596:29 *2379:C1 0.000223968
43 *596:29 *1300:38 0
44 *596:29 *1303:10 0
45 *596:29 *1304:106 0
46 *596:42 *2379:B1 0.000193639
47 *1468:A *1471:A2 2.83077e-06
48 *1471:A1 *1471:A2 7.35445e-06
49 *1475:A *1471:A2 1.1189e-05
50 *1525:A1 *596:42 0
51 *1939:B *1773:A1 0
52 *1939:B *596:23 0
53 *1944:B *596:42 2.57598e-05
54 *2026:A1 *1773:A1 0
55 *2378:A2 *596:42 7.691e-05
56 *2379:C2 *596:29 2.39679e-06
57 *2379:C2 *596:42 7.48282e-05
58 *2380:A *596:29 8.43215e-07
59 *153:14 *596:42 0
60 *154:27 *2374:A3 0
61 *167:19 *596:42 2.00057e-05
62 *202:12 *596:42 8.79186e-06
*RES
1 *1470:ZN *596:8 10.5357 
2 *596:8 *1939:A 5 
3 *596:8 *596:21 11.4286 
4 *596:21 *596:23 5 
5 *596:23 *596:29 20.0714 
6 *596:29 *2379:A 5 
7 *596:29 *596:42 48.8214 
8 *596:42 *1471:A2 28.75 
9 *596:23 *2374:A3 24.75 
10 *596:21 *1773:A1 45.3214 
*END

*D_NET *597 0.00165885
*CONN
*I *1522:A1 I *D NOR2_X2
*I *1534:A1 I *D NOR2_X4
*I *1476:A1 I *D NOR2_X1
*I *1474:A1 I *D NOR2_X2
*I *1471:ZN O *D NAND2_X4
*CAP
1 *1522:A1 6.24656e-05
2 *1534:A1 0
3 *1476:A1 0
4 *1474:A1 4.97975e-05
5 *1471:ZN 0.000304994
6 *597:32 0.000108043
7 *597:14 0.00011193
8 *597:10 0.000412704
9 *1474:A1 *1476:A2 1.29685e-05
10 *1474:A1 *1511:A2 2.13261e-05
11 *1474:A1 *599:8 1.30565e-05
12 *1474:A1 *601:14 1.26414e-05
13 *1522:A1 *1559:A1 0
14 *1522:A1 *640:10 8.52419e-06
15 *1522:A1 *648:24 0
16 *597:10 *628:10 0.000129405
17 *597:10 *628:14 8.22158e-05
18 *597:10 *636:10 0
19 *597:10 *636:14 0
20 *597:14 *1511:A1 0
21 *597:14 *602:10 6.25848e-07
22 *597:14 *628:14 7.69953e-05
23 *597:32 *1559:A1 0
24 *597:32 *648:24 0
25 *7:74 *1522:A1 2.7327e-05
26 *169:12 *597:10 0.000223826
*RES
1 *1471:ZN *597:10 48.9286 
2 *597:10 *597:14 11.3571 
3 *597:14 *1474:A1 12.1786 
4 *597:14 *1476:A1 5 
5 *597:10 *597:32 9.25 
6 *597:32 *1534:A1 5 
7 *597:32 *1522:A1 12.6786 
*END

*D_NET *599 0.000403463
*CONN
*I *1474:A2 I *D NOR2_X2
*I *1511:A2 I *D NOR2_X4
*I *1473:ZN O *D INV_X1
*CAP
1 *1474:A2 0
2 *1511:A2 7.72675e-05
3 *1473:ZN 3.80138e-05
4 *599:8 0.000115281
5 *1511:A2 *1476:A2 1.37673e-05
6 *1511:A2 *600:14 0.000111747
7 *1511:A2 *628:21 0
8 *1511:A2 *648:24 0
9 *599:8 *1529:A1 0
10 *599:8 *600:14 4.12459e-06
11 *599:8 *601:14 3.83453e-06
12 *599:8 *643:29 5.04378e-06
13 *1474:A1 *1511:A2 2.13261e-05
14 *1474:A1 *599:8 1.30565e-05
*RES
1 *1473:ZN *599:8 9.67857 
2 *599:8 *1511:A2 16.6786 
3 *599:8 *1474:A2 5 
*END

*D_NET *600 0.00373134
*CONN
*I *1478:A I *D AOI21_X1
*I *1729:A I *D INV_X1
*I *2373:A I *D AOI21_X1
*I *2383:A I *D AOI21_X1
*I *1578:A I *D AOI21_X1
*I *1492:A I *D AOI21_X1
*I *1474:ZN O *D NOR2_X2
*CAP
1 *1478:A 7.46175e-05
2 *1729:A 0
3 *2373:A 0
4 *2383:A 0
5 *1578:A 7.42177e-06
6 *1492:A 3.55459e-05
7 *1474:ZN 0.000236939
8 *600:72 0.000234652
9 *600:61 0.00029028
10 *600:46 0.000311628
11 *600:22 5.90078e-05
12 *600:20 0.000501367
13 *600:14 0.000540882
14 *1478:A *1709:A1 7.30645e-06
15 *1478:A *1949:A1 9.39597e-05
16 *1478:A *603:64 2.36319e-05
17 *1492:A *1492:B1 7.72792e-06
18 *1492:A *1578:B1 2.94435e-05
19 *1492:A *603:10 3.76649e-05
20 *1492:A *630:22 4.18985e-05
21 *1492:A *833:28 1.96315e-05
22 *1578:A *1578:B1 7.72537e-06
23 *1578:A *603:10 1.68643e-06
24 *600:14 *1523:A2 3.23723e-07
25 *600:14 *1527:A1 1.89852e-05
26 *600:14 *1527:A2 0.000100625
27 *600:14 *629:10 0.000156688
28 *600:14 *643:29 6.04034e-05
29 *600:14 *644:14 1.00231e-05
30 *600:14 *648:24 0
31 *600:20 *1517:A1 0.000222699
32 *600:20 *1523:A1 8.48361e-05
33 *600:20 *1523:A2 2.30152e-05
34 *600:20 *1532:A1 2.55331e-06
35 *600:20 *630:22 2.87222e-05
36 *600:22 *630:22 2.80114e-05
37 *600:46 *1517:A1 2.52965e-06
38 *600:46 *603:10 3.06671e-05
39 *600:61 *1477:A 3.09411e-06
40 *600:61 *1731:B2 0
41 *600:61 *2383:B2 1.76665e-06
42 *600:61 *603:6 2.47012e-05
43 *600:61 *603:53 5.23568e-06
44 *600:61 *833:22 0
45 *600:72 *1709:A1 9.74193e-06
46 *600:72 *1731:B1 7.66204e-06
47 *600:72 *1731:B2 3.10327e-05
48 *600:72 *603:64 1.15036e-05
49 *600:72 *833:10 7.63428e-05
50 *600:72 *833:22 8.75488e-06
51 *1498:A *600:61 0
52 *1511:A2 *600:14 0.000111747
53 *2373:B1 *600:61 2.75346e-06
54 *2373:B1 *600:72 3.56223e-05
55 *2391:A *600:61 0
56 *2391:A *600:72 0
57 *2392:A *600:14 1.25215e-05
58 *2392:A *600:20 1.70786e-05
59 *2392:B *1578:A 1.32323e-05
60 *2392:B *600:46 2.132e-05
61 *6:52 *600:14 0
62 *599:8 *600:14 4.12459e-06
*RES
1 *1474:ZN *600:14 39.9643 
2 *600:14 *600:20 43.5357 
3 *600:20 *600:22 1.60714 
4 *600:22 *1492:A 16.0357 
5 *600:22 *1578:A 11.25 
6 *600:20 *600:46 24.25 
7 *600:46 *2383:A 5 
8 *600:46 *600:61 14.6429 
9 *600:61 *2373:A 5 
10 *600:61 *600:72 21.4286 
11 *600:72 *1729:A 5 
12 *600:72 *1478:A 16.1786 
*END

*D_NET *601 0.000963516
*CONN
*I *1529:A2 I *D NOR2_X2
*I *1530:A2 I *D NOR2_X2
*I *1476:A2 I *D NOR2_X1
*I *1475:ZN O *D INV_X1
*CAP
1 *1529:A2 0
2 *1530:A2 0
3 *1476:A2 4.10806e-05
4 *1475:ZN 0.000256331
5 *601:14 0.000182802
6 *601:10 0.000398053
7 *1476:A2 *628:21 3.65322e-06
8 *1476:A2 *648:24 1.1519e-06
9 *601:10 *643:8 0
10 *601:14 *643:16 0
11 *601:14 *643:29 0
12 *601:14 *647:14 3.35796e-05
13 *601:14 *648:24 3.65322e-06
14 *1474:A1 *1476:A2 1.29685e-05
15 *1474:A1 *601:14 1.26414e-05
16 *1511:A2 *1476:A2 1.37673e-05
17 *202:16 *601:10 0
18 *599:8 *601:14 3.83453e-06
*RES
1 *1475:ZN *601:10 42.3929 
2 *601:10 *601:14 15.6786 
3 *601:14 *1476:A2 11.2143 
4 *601:14 *1530:A2 5 
5 *601:10 *1529:A2 5 
*END

*D_NET *602 0.0040631
*CONN
*I *1477:A I *D INV_X1
*I *1731:B2 I *D OAI21_X1
*I *1476:ZN O *D NOR2_X1
*CAP
1 *1477:A 3.92577e-06
2 *1731:B2 0.000152707
3 *1476:ZN 4.60766e-06
4 *602:16 0.000816972
5 *602:10 0.000664947
6 *1731:B2 *1731:B1 2.39679e-06
7 *1731:B2 *603:53 3.96215e-05
8 *1731:B2 *603:64 9.89723e-05
9 *1731:B2 *833:22 7.26631e-05
10 *602:10 *647:20 0
11 *602:16 *1531:A2 0.00047089
12 *602:16 *643:35 0.000172474
13 *602:16 *684:25 0.000444803
14 *602:16 *684:110 0.00100802
15 *602:16 *740:10 0
16 *1498:A *602:16 1.29976e-05
17 *2373:B1 *1731:B2 3.23338e-05
18 *2383:B1 *1731:B2 0
19 *2383:B1 *602:16 0
20 *2391:A *1731:B2 2.89018e-05
21 *2391:B *1731:B2 1.11168e-06
22 *2391:B *602:16 0
23 *597:14 *602:10 6.25848e-07
24 *600:61 *1477:A 3.09411e-06
25 *600:61 *1731:B2 0
26 *600:72 *1731:B2 3.10327e-05
*RES
1 *1476:ZN *602:10 15.4643 
2 *602:10 *602:16 48.62 
3 *602:16 *1731:B2 43.1786 
4 *602:16 *1477:A 10.75 
*END

*D_NET *603 0.00207
*CONN
*I *1478:B1 I *D AOI21_X1
*I *1949:A2 I *D NAND3_X1
*I *2373:B2 I *D AOI21_X1
*I *2383:B2 I *D AOI21_X1
*I *1578:B2 I *D AOI21_X1
*I *1492:B2 I *D AOI21_X1
*I *2283:A3 I *D NAND3_X1
*I *1477:ZN O *D INV_X1
*CAP
1 *1478:B1 0
2 *1949:A2 3.95685e-05
3 *2373:B2 0
4 *2383:B2 8.15016e-06
5 *1578:B2 0
6 *1492:B2 3.5768e-05
7 *2283:A3 0.000100615
8 *1477:ZN 7.5433e-05
9 *603:64 0.000275359
10 *603:53 0.000287746
11 *603:14 0.000157286
12 *603:10 0.000196694
13 *603:6 0.000207418
14 *1492:B2 *1576:A1 0
15 *1492:B2 *1577:A 1.08378e-05
16 *1492:B2 *1578:B1 7.72792e-06
17 *1492:B2 *833:28 3.32229e-05
18 *1949:A2 *1949:A1 2.69786e-05
19 *2283:A3 *630:22 5.49977e-05
20 *603:6 *833:28 6.22967e-06
21 *603:10 *1578:B1 7.72537e-06
22 *603:10 *833:28 3.78684e-05
23 *603:14 *1578:B1 2.94455e-05
24 *603:14 *630:22 2.08098e-06
25 *603:53 *833:22 0
26 *603:64 *1731:B1 3.96215e-05
27 *603:64 *692:8 0
28 *603:64 *833:22 2.81725e-05
29 *1478:A *603:64 2.36319e-05
30 *1492:A *603:10 3.76649e-05
31 *1575:A2 *603:64 1.19721e-05
32 *1578:A *603:10 1.68643e-06
33 *1731:B2 *603:53 3.96215e-05
34 *1731:B2 *603:64 9.89723e-05
35 *1949:A3 *1949:A2 3.16205e-05
36 *2283:A2 *2283:A3 1.72405e-05
37 *2373:B1 *603:53 1.21774e-06
38 *2373:B1 *603:64 2.24822e-06
39 *2392:B *603:10 1.61451e-06
40 *2395:B *603:10 1.76665e-06
41 *171:23 *1949:A2 0
42 *172:8 *603:64 5.46172e-05
43 *224:55 *603:64 3.30047e-06
44 *600:46 *603:10 3.06671e-05
45 *600:61 *2383:B2 1.76665e-06
46 *600:61 *603:6 2.47012e-05
47 *600:61 *603:53 5.23568e-06
48 *600:72 *603:64 1.15036e-05
*RES
1 *1477:ZN *603:6 8.25 
2 *603:6 *603:10 21.1786 
3 *603:10 *603:14 7.28572 
4 *603:14 *2283:A3 23.1429 
5 *603:14 *1492:B2 14.75 
6 *603:10 *1578:B2 5 
7 *603:6 *2383:B2 5.92857 
8 *1477:ZN *603:53 11.7143 
9 *603:53 *2373:B2 5 
10 *603:53 *603:64 32.1072 
11 *603:64 *1949:A2 10.6786 
12 *603:64 *1478:B1 5 
*END

*D_NET *604 6.76221e-05
*CONN
*I *1484:A1 I *D NOR2_X2
*I *1483:ZN O *D NAND2_X1
*CAP
1 *1484:A1 2.44633e-05
2 *1483:ZN 2.44633e-05
3 *1484:A2 *1484:A1 7.72537e-06
4 *2390:A *1484:A1 8.58925e-06
5 *219:19 *1484:A1 2.38077e-06
*RES
1 *1483:ZN *1484:A1 23.0357 
*END

*D_NET *605 0.00142414
*CONN
*I *1485:A I *D INV_X1
*I *2280:A2 I *D NAND2_X1
*I *2282:A2 I *D NAND3_X1
*I *2372:A I *D XNOR2_X1
*I *1484:ZN O *D NOR2_X2
*CAP
1 *1485:A 1.50803e-05
2 *2280:A2 3.27402e-05
3 *2282:A2 4.08248e-05
4 *2372:A 0
5 *1484:ZN 0.000240973
6 *605:26 6.29008e-05
7 *605:15 0.000345891
8 *605:6 0.00053096
9 *2280:A2 *1489:A1 0
10 *2280:A2 *1491:A 0
11 *2282:A2 *2279:A1 1.8431e-05
12 *605:6 *653:43 0
13 *605:15 *1489:A1 0
14 *605:15 *2279:A1 2.11458e-06
15 *605:15 *607:8 2.01301e-05
16 *605:15 *633:44 0
17 *605:15 *653:43 0
18 *1483:A1 *605:6 4.88546e-05
19 *1488:A2 *605:15 2.98228e-05
20 *1575:A1 *605:6 1.58933e-05
21 *2282:A3 *2282:A2 2.39679e-06
22 *2372:B *605:6 9.12631e-06
23 *12:31 *605:6 2.14856e-06
24 *12:31 *605:15 3.23723e-07
25 *14:46 *2280:A2 0
26 *197:30 *605:6 5.52959e-06
*RES
1 *1484:ZN *605:6 30.25 
2 *605:6 *2372:A 5 
3 *605:6 *605:15 30.6786 
4 *605:15 *2282:A2 10.6786 
5 *605:15 *605:26 1.60714 
6 *605:26 *2280:A2 9.75 
7 *605:26 *1485:A 6.60714 
*END

*D_NET *606 7.21304e-05
*CONN
*I *1489:A1 I *D NOR2_X1
*I *1485:ZN O *D INV_X1
*CAP
1 *1489:A1 3.21375e-05
2 *1485:ZN 3.21375e-05
3 *1489:A1 *1491:A 7.85536e-06
4 *2280:A2 *1489:A1 0
5 *605:15 *1489:A1 0
*RES
1 *1485:ZN *1489:A1 13.5357 
*END

*D_NET *607 0.000634122
*CONN
*I *1489:A2 I *D NOR2_X1
*I *2279:A1 I *D NOR2_X1
*I *1488:ZN O *D NAND2_X1
*CAP
1 *1489:A2 1.96764e-05
2 *2279:A1 7.31128e-05
3 *1488:ZN 0.000124586
4 *607:8 0.000217375
5 *2279:A1 *633:44 1.16447e-05
6 *2282:A2 *2279:A1 1.8431e-05
7 *2282:A3 *2279:A1 2.39679e-06
8 *13:44 *1489:A2 3.02372e-05
9 *13:44 *2279:A1 9.38792e-05
10 *191:10 *1489:A2 4.52612e-06
11 *191:10 *2279:A1 1.47955e-05
12 *507:12 *2279:A1 1.21774e-06
13 *605:15 *2279:A1 2.11458e-06
14 *605:15 *607:8 2.01301e-05
*RES
1 *1488:ZN *607:8 22.75 
2 *607:8 *2279:A1 20.75 
3 *607:8 *1489:A2 12.8571 
*END

*D_NET *608 9.88153e-05
*CONN
*I *1491:A I *D XNOR2_X1
*I *1489:ZN O *D NOR2_X1
*CAP
1 *1491:A 3.58429e-05
2 *1489:ZN 3.58429e-05
3 *1489:A1 *1491:A 7.85536e-06
4 *1491:B *1491:A 1.10138e-05
5 *2280:A2 *1491:A 0
6 *13:44 *1491:A 0
7 *14:46 *1491:A 8.26038e-06
*RES
1 *1489:ZN *1491:A 14.3571 
*END

*D_NET *610 0.000262476
*CONN
*I *1492:B1 I *D AOI21_X1
*I *1491:ZN O *D XNOR2_X1
*CAP
1 *1492:B1 6.68677e-05
2 *1491:ZN 6.68677e-05
3 *1492:B1 *630:22 2.24371e-05
4 *1492:B1 *775:14 1.84823e-05
5 *1492:B1 *833:28 7.72792e-06
6 *1492:A *1492:B1 7.72792e-06
7 *1576:A2 *1492:B1 5.62265e-05
8 *2392:B *1492:B1 1.88334e-06
9 *14:46 *1492:B1 2.14856e-06
10 *191:10 *1492:B1 1.21072e-05
*RES
1 *1491:ZN *1492:B1 30.5714 
*END

*D_NET *611 0.000244724
*CONN
*I *1638:A2 I *D NAND3_X1
*I *1584:B1 I *D OAI21_X1
*I *1499:A I *D AOI21_X1
*I *1493:ZN O *D INV_X1
*CAP
1 *1638:A2 1.92508e-05
2 *1584:B1 0
3 *1499:A 0
4 *1493:ZN 2.39237e-05
5 *611:17 3.49247e-05
6 *611:8 3.95976e-05
7 *1638:A2 *1499:B1 0
8 *1638:A2 *1637:A1 0
9 *1638:A2 *1638:A1 0
10 *1638:A2 *1638:A3 2.4656e-05
11 *611:8 *1499:B1 0
12 *611:8 *616:8 1.72405e-05
13 *611:8 *616:19 4.24402e-05
14 *611:17 *1499:B1 0
15 *611:17 *1638:A3 3.02372e-05
16 *611:17 *616:19 1.2453e-05
*RES
1 *1493:ZN *611:8 12.9643 
2 *611:8 *1499:A 10 
3 *611:8 *611:17 2.28572 
4 *611:17 *1584:B1 10 
5 *611:17 *1638:A2 12.2857 
*END

*D_NET *612 0.000211312
*CONN
*I *1663:A I *D OAI21_X1
*I *1496:A I *D OAI21_X1
*I *1494:ZN O *D INV_X1
*CAP
1 *1663:A 3.42068e-05
2 *1496:A 7.63302e-06
3 *1494:ZN 4.07938e-05
4 *612:12 8.26337e-05
5 *1496:A *1663:B2 2.39679e-06
6 *1496:A *613:10 1.04788e-05
7 *1496:A *613:19 2.39679e-06
8 *1663:A *1663:B2 2.16072e-07
9 *1663:A *613:19 2.70833e-06
10 *612:12 *1497:A1 1.65264e-05
11 *612:12 *1664:A 1.39844e-06
12 *612:12 *613:10 4.35384e-06
13 *612:12 *735:35 5.56936e-06
*RES
1 *1494:ZN *612:12 19.3571 
2 *612:12 *1496:A 6.25 
3 *612:12 *1663:A 9.21429 
*END

*D_NET *613 0.000267617
*CONN
*I *1683:A I *D XNOR2_X1
*I *1663:B2 I *D OAI21_X1
*I *1496:B1 I *D OAI21_X1
*I *1495:ZN O *D INV_X1
*CAP
1 *1683:A 3.20656e-05
2 *1663:B2 7.44651e-06
3 *1496:B1 0
4 *1495:ZN 5.386e-05
5 *613:19 5.86826e-05
6 *613:10 7.30305e-05
7 *1683:A *1684:B2 1.40196e-06
8 *613:10 *1497:A1 2.14504e-06
9 *613:10 *735:39 5.52959e-06
10 *1496:A *1663:B2 2.39679e-06
11 *1496:A *613:10 1.04788e-05
12 *1496:A *613:19 2.39679e-06
13 *1496:B2 *1683:A 3.1962e-06
14 *1496:B2 *613:10 8.43215e-07
15 *1496:B2 *613:19 4.68638e-06
16 *1586:A2 *613:10 2.17903e-06
17 *1663:A *1663:B2 2.16072e-07
18 *1663:A *613:19 2.70833e-06
19 *612:12 *613:10 4.35384e-06
*RES
1 *1495:ZN *613:10 11.2857 
2 *613:10 *1496:B1 5 
3 *613:10 *613:19 2.85714 
4 *613:19 *1663:B2 6.25 
5 *613:19 *1683:A 8.25 
*END

*D_NET *614 0.000478422
*CONN
*I *1497:A1 I *D NAND2_X1
*I *1496:ZN O *D OAI21_X1
*CAP
1 *1497:A1 0.000174368
2 *1496:ZN 0.000174368
3 *1497:A1 *1585:A 2.39679e-06
4 *1497:A1 *1588:A 1.87369e-06
5 *1497:A1 *1588:B1 7.72792e-06
6 *1497:A1 *1589:A1 8.86827e-07
7 *1497:A1 *1589:A2 1.08812e-05
8 *1497:A1 *1589:A3 3.89107e-05
9 *1497:A1 *1664:A 1.35979e-05
10 *1497:A1 *696:8 0
11 *1497:A1 *705:14 4.78746e-06
12 *1494:A *1497:A1 2.99527e-05
13 *1586:A2 *1497:A1 0
14 *165:24 *1497:A1 0
15 *612:12 *1497:A1 1.65264e-05
16 *613:10 *1497:A1 2.14504e-06
*RES
1 *1496:ZN *1497:A1 31.2857 
*END

*D_NET *615 0.000312754
*CONN
*I *1638:A1 I *D NAND3_X1
*I *1499:B1 I *D AOI21_X1
*I *1497:ZN O *D NAND2_X1
*CAP
1 *1638:A1 4.717e-05
2 *1499:B1 5.61284e-05
3 *1497:ZN 0
4 *615:6 0.000103298
5 *1499:B1 *1584:B2 8.43215e-07
6 *1499:B1 *1585:A 0
7 *1499:B1 *705:14 3.90891e-05
8 *1638:A1 *1585:A 2.14504e-06
9 *1638:A1 *1638:A3 8.43215e-07
10 *1638:A1 *1664:A 7.66675e-07
11 *1638:A1 *735:35 3.90865e-05
12 *1638:A2 *1499:B1 0
13 *1638:A2 *1638:A1 0
14 *1664:B *1499:B1 3.01743e-06
15 *1664:B *1638:A1 1.084e-05
16 *176:17 *1499:B1 9.5257e-06
17 *611:8 *1499:B1 0
18 *611:17 *1499:B1 0
*RES
1 *1497:ZN *615:6 10 
2 *615:6 *1499:B1 16.7143 
3 *615:6 *1638:A1 16.7143 
*END

*D_NET *616 0.000468162
*CONN
*I *1638:A3 I *D NAND3_X1
*I *1584:B2 I *D OAI21_X1
*I *1499:B2 I *D AOI21_X1
*I *1498:ZN O *D INV_X1
*CAP
1 *1638:A3 2.29527e-05
2 *1584:B2 8.31645e-06
3 *1499:B2 5.36958e-06
4 *1498:ZN 9.59434e-05
5 *616:19 5.03956e-05
6 *616:8 0.000120439
7 *1499:B2 *705:14 7.19036e-06
8 *1584:B2 *1584:A 6.48216e-07
9 *1584:B2 *705:14 4.32144e-07
10 *1638:A3 *1584:A 7.19036e-06
11 *1638:A3 *1637:A1 3.01738e-06
12 *1638:A3 *735:35 4.32144e-07
13 *616:8 *1637:A1 1.03226e-06
14 *616:19 *1637:A1 2.54978e-06
15 *1499:B1 *1584:B2 8.43215e-07
16 *1638:A1 *1638:A3 8.43215e-07
17 *1638:A2 *1638:A3 2.4656e-05
18 *183:12 *1499:B2 3.09411e-06
19 *183:12 *616:8 1.04451e-05
20 *611:8 *616:8 1.72405e-05
21 *611:8 *616:19 4.24402e-05
22 *611:17 *1638:A3 3.02372e-05
23 *611:17 *616:19 1.2453e-05
*RES
1 *1498:ZN *616:8 21.1071 
2 *616:8 *1499:B2 10.75 
3 *616:8 *616:19 2.96429 
4 *616:19 *1584:B2 10.75 
5 *616:19 *1638:A3 13.7143 
*END

*D_NET *617 0.000720169
*CONN
*I *1640:B1 I *D OAI21_X1
*I *1500:B1 I *D OAI21_X1
*I *1499:ZN O *D AOI21_X1
*CAP
1 *1640:B1 2.24223e-05
2 *1500:B1 0.000173452
3 *1499:ZN 5.26884e-05
4 *617:10 0.000248563
5 *1500:B1 *1639:A 8.43215e-07
6 *1500:B1 *1665:A2 0
7 *1500:B1 *656:47 0
8 *1640:B1 *1637:A1 2.0679e-05
9 *1640:B1 *1641:A1 1.66996e-05
10 *1640:B1 *1641:A2 1.88334e-06
11 *1640:B1 *735:8 1.02238e-05
12 *617:10 *1584:A 0
13 *617:10 *1637:A1 3.02296e-05
14 *617:10 *1639:A 0
15 *617:10 *1641:A1 1.76415e-05
16 *617:10 *705:14 3.34038e-05
17 *1500:A *1500:B1 2.75346e-06
18 *1500:B2 *1500:B1 7.95965e-05
19 *1583:A *1500:B1 9.08971e-06
*RES
1 *1499:ZN *617:10 17.5714 
2 *617:10 *1500:B1 30.25 
3 *617:10 *1640:B1 14.3214 
*END

*D_NET *618 0.000207664
*CONN
*I *1502:A1 I *D NAND2_X1
*I *1505:A1 I *D NAND3_X1
*I *1500:ZN O *D OAI21_X1
*CAP
1 *1502:A1 0
2 *1505:A1 1.84399e-05
3 *1500:ZN 4.7728e-05
4 *618:12 6.61679e-05
5 *1505:A1 *1503:A1 5.47143e-06
6 *1505:A1 *1539:A2 4.12796e-06
7 *1505:A1 *619:25 1.66988e-05
8 *618:12 *1539:A2 4.177e-06
9 *618:12 *2292:B2 2.39679e-06
10 *618:12 *619:25 4.79358e-06
11 *1500:A *618:12 3.76624e-05
12 *2289:A *1505:A1 0
*RES
1 *1500:ZN *618:12 20.3571 
2 *618:12 *1505:A1 17.2857 
3 *618:12 *1502:A1 5 
*END

*D_NET *619 0.000813708
*CONN
*I *1505:A3 I *D NAND3_X1
*I *2292:B2 I *D OAI21_X1
*I *1502:A2 I *D NAND2_X1
*I *1501:ZN O *D INV_X1
*CAP
1 *1505:A3 0
2 *2292:B2 3.99701e-05
3 *1502:A2 0
4 *1501:ZN 0.000171926
5 *619:25 6.30379e-05
6 *619:8 0.000194994
7 *2292:B2 *1505:A2 4.21903e-05
8 *2292:B2 *622:8 1.33627e-05
9 *619:8 *1503:A1 1.72426e-05
10 *619:8 *1539:A2 2.89375e-05
11 *619:25 *1503:A1 1.19734e-05
12 *619:25 *1505:A2 2.39679e-06
13 *619:25 *1539:A2 3.70828e-05
14 *1500:A *2292:B2 3.5628e-06
15 *1505:A1 *619:25 1.66988e-05
16 *1590:B *2292:B2 2.16072e-07
17 *180:10 *619:8 0.000148783
18 *180:12 *2292:B2 1.41436e-05
19 *618:12 *2292:B2 2.39679e-06
20 *618:12 *619:25 4.79358e-06
*RES
1 *1501:ZN *619:8 32.6429 
2 *619:8 *1502:A2 10 
3 *619:8 *619:25 9.03572 
4 *619:25 *2292:B2 10.9286 
5 *619:25 *1505:A3 5 
*END

*D_NET *620 0.000129111
*CONN
*I *1503:A1 I *D NAND2_X1
*I *1502:ZN O *D NAND2_X1
*CAP
1 *1503:A1 2.91449e-05
2 *1502:ZN 2.91449e-05
3 *1500:A *1503:A1 2.52965e-06
4 *1503:A2 *1503:A1 3.09143e-06
5 *1504:A *1503:A1 2.77917e-07
6 *1505:A1 *1503:A1 5.47143e-06
7 *2289:A *1503:A1 0
8 *180:10 *1503:A1 3.02351e-05
9 *619:8 *1503:A1 1.72426e-05
10 *619:25 *1503:A1 1.19734e-05
*RES
1 *1502:ZN *1503:A1 24.6071 
*END

*D_NET *621 7.67815e-05
*CONN
*I *1539:A1 I *D NAND3_X1
*I *1503:ZN O *D NAND2_X1
*CAP
1 *1539:A1 3.12546e-05
2 *1503:ZN 3.12546e-05
3 *1539:A1 *1539:A2 1.26998e-05
4 *1539:A1 *656:32 7.29164e-07
5 *1500:A *1539:A1 0
6 *1503:A2 *1539:A1 8.43215e-07
*RES
1 *1503:ZN *1539:A1 13.5357 
*END

*D_NET *622 0.000214184
*CONN
*I *2292:B1 I *D OAI21_X1
*I *1505:A2 I *D NAND3_X1
*I *1504:ZN O *D INV_X1
*CAP
1 *2292:B1 1.25709e-05
2 *1505:A2 3.44811e-05
3 *1504:ZN 2.77473e-05
4 *622:8 7.47992e-05
5 *2292:A *2292:B1 2.75346e-06
6 *2292:A *622:8 3.5628e-06
7 *2292:B2 *1505:A2 4.21903e-05
8 *2292:B2 *622:8 1.33627e-05
9 *2293:A *2292:B1 3.19164e-07
10 *619:25 *1505:A2 2.39679e-06
*RES
1 *1504:ZN *622:8 8.85714 
2 *622:8 *1505:A2 9.67857 
3 *622:8 *2292:B1 7.17857 
*END

*D_NET *623 0.00022755
*CONN
*I *1539:A2 I *D NAND3_X1
*I *1505:ZN O *D NAND3_X1
*CAP
1 *1539:A2 6.24469e-05
2 *1505:ZN 6.24469e-05
3 *1539:A2 *656:32 2.39679e-06
4 *1539:A2 *656:47 1.32348e-05
5 *1505:A1 *1539:A2 4.12796e-06
6 *1539:A1 *1539:A2 1.26998e-05
7 *618:12 *1539:A2 4.177e-06
8 *619:8 *1539:A2 2.89375e-05
9 *619:25 *1539:A2 3.70828e-05
*RES
1 *1505:ZN *1539:A2 28.2857 
*END

*D_NET *625 0.00160717
*CONN
*I *2379:B1 I *D OAI221_X1
*I *1942:A I *D XNOR2_X1
*I *1536:A I *D OAI21_X1
*I *1510:A1 I *D NAND2_X4
*I *1507:ZN O *D INV_X2
*CAP
1 *2379:B1 7.52844e-05
2 *1942:A 1.36849e-05
3 *1536:A 8.29575e-05
4 *1510:A1 0
5 *1507:ZN 0
6 *625:32 0.000186522
7 *625:12 0.000458251
8 *625:6 0.000472847
9 *1536:A *1510:A2 0
10 *1536:A *1536:B2 6.8089e-06
11 *1942:A *1303:10 0
12 *625:12 *1510:A2 7.16188e-07
13 *625:12 *2386:B 1.18301e-05
14 *625:12 *1280:27 1.77855e-05
15 *625:12 *1280:78 4.30618e-06
16 *625:32 *1280:78 1.93198e-05
17 *625:32 *1303:10 0
18 *1475:A *1536:A 0
19 *1525:A1 *625:12 1.97274e-05
20 *2378:A1 *2379:B1 2.26268e-06
21 *153:12 *2379:B1 2.02955e-06
22 *153:14 *2379:B1 8.02249e-06
23 *153:14 *625:12 4.12911e-06
24 *153:14 *625:32 2.46481e-05
25 *167:25 *1942:A 0
26 *167:25 *625:32 0
27 *596:29 *2379:B1 2.39679e-06
28 *596:42 *2379:B1 0.000193639
*RES
1 *1507:ZN *625:6 10 
2 *625:6 *625:12 46.0714 
3 *625:12 *1510:A1 5 
4 *625:12 *1536:A 13.7143 
5 *625:6 *625:32 16.6071 
6 *625:32 *1942:A 6.25 
7 *625:32 *2379:B1 26.5 
*END

*D_NET *627 0.00222577
*CONN
*I *1781:A1 I *D NOR2_X1
*I *1536:B2 I *D OAI21_X1
*I *1510:A2 I *D NAND2_X4
*I *1509:ZN O *D INV_X2
*CAP
1 *1781:A1 0.000101322
2 *1536:B2 2.38485e-05
3 *1510:A2 5.84471e-05
4 *1509:ZN 9.10213e-06
5 *627:10 0.000521402
6 *627:8 0.000549531
7 *1510:A2 *628:10 1.78013e-05
8 *1510:A2 *643:8 0
9 *1536:B2 *628:10 0
10 *1781:A1 *1781:A2 3.09411e-06
11 *1781:A1 *2026:A2 1.68643e-06
12 *1781:A1 *884:8 1.72405e-05
13 *1781:A1 *1087:14 2.0869e-05
14 *627:8 *1282:45 1.0794e-06
15 *627:10 *2403:A 8.06431e-06
16 *627:10 *2403:B 4.17885e-06
17 *627:10 *643:8 0
18 *627:10 *1304:94 0
19 *1536:A *1510:A2 0
20 *1536:A *1536:B2 6.8089e-06
21 *1536:B1 *627:10 2.19303e-05
22 *1773:A1 *1781:A1 2.70833e-06
23 *1986:A *1781:A1 8.64266e-05
24 *1986:A *627:10 1.21072e-05
25 *2026:A1 *1781:A1 4.07589e-05
26 *2026:A1 *627:10 2.22714e-05
27 *2387:B *627:10 3.92407e-05
28 *153:45 *627:8 0
29 *154:31 *627:10 3.73586e-05
30 *167:38 *627:10 5.01378e-05
31 *205:10 *627:10 0.000545029
32 *388:8 *1781:A1 2.26103e-05
33 *625:12 *1510:A2 7.16188e-07
*RES
1 *1509:ZN *627:8 10.75 
2 *627:8 *627:10 63.3572 
3 *627:10 *1510:A2 16.2143 
4 *627:10 *1536:B2 12.75 
5 *627:8 *1781:A1 26.3929 
*END

*D_NET *628 0.00155557
*CONN
*I *1559:A1 I *D NOR2_X2
*I *1566:A1 I *D NOR2_X2
*I *1511:A1 I *D NOR2_X4
*I *1530:A1 I *D NOR2_X2
*I *1510:ZN O *D NAND2_X4
*CAP
1 *1559:A1 0.000105511
2 *1566:A1 0
3 *1511:A1 4.49696e-05
4 *1530:A1 0
5 *1510:ZN 0.000291572
6 *628:21 7.3485e-05
7 *628:14 9.15288e-05
8 *628:10 0.000460097
9 *1559:A1 *1519:A1 0
10 *1559:A1 *1534:A2 1.51469e-05
11 *1559:A1 *652:10 1.89851e-06
12 *1559:A1 *677:8 1.32348e-05
13 *628:10 *1519:A1 0
14 *628:10 *1537:A2 0
15 *628:21 *648:24 3.85541e-05
16 *1476:A2 *628:21 3.65322e-06
17 *1510:A2 *628:10 1.78013e-05
18 *1511:A2 *628:21 0
19 *1522:A1 *1559:A1 0
20 *1536:B2 *628:10 0
21 *7:72 *1511:A1 0.000103691
22 *7:72 *628:14 0
23 *7:74 *1559:A1 3.23723e-07
24 *165:16 *1559:A1 3.65322e-06
25 *169:12 *628:10 1.83053e-06
26 *597:10 *628:10 0.000129405
27 *597:10 *628:14 8.22158e-05
28 *597:14 *1511:A1 0
29 *597:14 *628:14 7.69953e-05
30 *597:32 *1559:A1 0
*RES
1 *1510:ZN *628:10 41.7857 
2 *628:10 *628:14 13.3929 
3 *628:14 *1530:A1 5 
4 *628:14 *628:21 3.75 
5 *628:21 *1511:A1 20.6786 
6 *628:21 *1566:A1 5 
7 *628:10 *1559:A1 21.1786 
*END

*D_NET *629 0.00430319
*CONN
*I *1612:A1 I *D NAND2_X1
*I *1512:A I *D INV_X4
*I *1645:A1 I *D NAND2_X1
*I *2310:B1 I *D AOI21_X1
*I *1565:A1 I *D NAND2_X1
*I *1511:ZN O *D NOR2_X4
*CAP
1 *1612:A1 0
2 *1512:A 0.000116093
3 *1645:A1 0
4 *2310:B1 0
5 *1565:A1 6.14132e-05
6 *1511:ZN 0.000200912
7 *629:38 0.000456257
8 *629:27 0.000522536
9 *629:14 0.000446397
10 *629:10 0.000403523
11 *1512:A *1660:A 0
12 *1512:A *771:14 0
13 *1565:A1 *642:40 5.1203e-06
14 *629:10 *1608:A2 1.46625e-05
15 *629:10 *633:25 0.000399046
16 *629:10 *648:30 0.000336694
17 *629:10 *690:10 0
18 *629:14 *1552:A1 3.91613e-05
19 *629:14 *1608:A2 1.72191e-05
20 *629:14 *1658:A 1.79265e-05
21 *629:14 *633:25 0.000105834
22 *629:14 *640:24 0.000233088
23 *629:14 *688:10 0.000248778
24 *629:14 *688:30 0.00023669
25 *629:14 *690:10 0
26 *629:14 *710:16 4.24381e-05
27 *629:27 *642:40 3.80728e-05
28 *629:38 *1648:A2 0
29 *629:38 *1661:A2 0
30 *629:38 *642:51 4.16496e-05
31 *629:38 *771:14 0
32 *629:38 *775:12 0
33 *1599:A2 *1512:A 0
34 *1645:A2 *1512:A 0
35 *1645:A2 *629:38 4.93896e-05
36 *2310:A *629:27 2.39679e-06
37 *2310:A *629:38 6.11168e-05
38 *2313:A2 *629:27 1.78504e-05
39 *2314:A *629:38 0
40 *2319:A1 *629:27 1.99237e-05
41 *2319:A2 *629:27 7.19036e-06
42 *6:52 *629:10 0
43 *7:38 *1565:A1 5.1203e-06
44 *199:16 *1512:A 0
45 *600:14 *629:10 0.000156688
*RES
1 *1511:ZN *629:10 46.5357 
2 *629:10 *629:14 46.6429 
3 *629:14 *1565:A1 10.75 
4 *629:14 *629:27 21.4286 
5 *629:27 *2310:B1 5 
6 *629:27 *629:38 42.0357 
7 *629:38 *1645:A1 10 
8 *629:38 *1512:A 21.7857 
9 *629:10 *1612:A1 10 
*END

*D_NET *630 0.00552857
*CONN
*I *1711:A1 I *D OAI22_X1
*I *1669:A1 I *D OAI22_X1
*I *1696:A1 I *D OAI22_X1
*I *1622:A3 I *D NAND3_X1
*I *1517:A1 I *D NAND2_X1
*I *1512:ZN O *D INV_X4
*CAP
1 *1711:A1 0
2 *1669:A1 0
3 *1696:A1 3.13913e-05
4 *1622:A3 0
5 *1517:A1 0.00012364
6 *1512:ZN 0
7 *630:78 0.000151903
8 *630:63 0.000275475
9 *630:46 0.000460246
10 *630:42 0.000515097
11 *630:22 0.000417987
12 *630:18 0.000368096
13 *630:14 0.000207378
14 *630:4 0.000343443
15 *1696:A1 *1696:A2 7.19036e-06
16 *1696:A1 *1696:B1 6.99376e-05
17 *1696:A1 *642:93 2.96955e-05
18 *630:14 *1621:A1 2.23552e-06
19 *630:14 *1622:A1 8.43215e-07
20 *630:14 *1623:A1 1.0303e-05
21 *630:14 *1659:A 1.41532e-05
22 *630:14 *633:48 4.76053e-06
23 *630:14 *634:55 1.68643e-06
24 *630:14 *648:66 1.85669e-05
25 *630:14 *648:78 2.89018e-05
26 *630:14 *709:14 0
27 *630:18 *1622:A1 8.34066e-06
28 *630:18 *1623:A1 2.39679e-06
29 *630:18 *634:55 1.51875e-05
30 *630:18 *648:66 5.37952e-06
31 *630:22 *1578:B1 8.56923e-06
32 *630:22 *634:51 3.0023e-06
33 *630:22 *775:14 0
34 *630:42 *642:76 2.33422e-06
35 *630:42 *648:78 0
36 *630:42 *660:23 1.43238e-06
37 *630:42 *709:14 0
38 *630:46 *1545:A1 2.58428e-06
39 *630:46 *1545:A2 4.25617e-05
40 *630:46 *642:76 0.000158488
41 *630:46 *660:23 7.02617e-06
42 *630:63 *1669:A2 1.19839e-05
43 *630:63 *1682:A1 8.8068e-06
44 *630:63 *642:93 0.000253799
45 *630:63 *642:108 8.43215e-07
46 *630:78 *1669:A2 2.39679e-06
47 *630:78 *1673:A1 2.75346e-06
48 *630:78 *1682:A1 4.32144e-07
49 *630:78 *1711:A2 7.19036e-06
50 *630:78 *1714:A1 2.39679e-06
51 *630:78 *1715:A1 0.00030305
52 *630:78 *1722:A2 3.52448e-06
53 *630:78 *642:108 0.000561056
54 *630:78 *647:110 9.24246e-06
55 *630:78 *810:20 5.39412e-06
56 *1492:A *630:22 4.18985e-05
57 *1492:B1 *630:22 2.24371e-05
58 *1542:A *630:42 1.30183e-05
59 *1543:B2 *630:42 0
60 *1543:B2 *630:46 1.40196e-05
61 *1599:A2 *630:14 3.48838e-06
62 *1669:B2 *630:78 5.41015e-05
63 *1706:A4 *630:46 1.53472e-05
64 *1946:A *630:42 0
65 *2280:A1 *630:22 1.22474e-05
66 *2282:A3 *630:22 0
67 *2283:A2 *630:22 4.92317e-06
68 *2283:A3 *630:22 5.49977e-05
69 *2392:A *1517:A1 0.000153324
70 *2392:B *1517:A1 1.3388e-05
71 *2392:B *630:22 1.30469e-05
72 *2395:B *1517:A1 0
73 *2396:B *630:18 2.30029e-05
74 *2397:B *630:18 1.70588e-05
75 *2399:B *630:42 2.37375e-05
76 *2415:A *630:63 7.72792e-06
77 *2415:B *630:63 3.72089e-05
78 *2:44 *630:63 0
79 *5:64 *630:18 2.68294e-05
80 *155:12 *630:63 4.52612e-06
81 *191:10 *630:22 0.000107243
82 *199:12 *630:14 0
83 *199:12 *630:42 0
84 *220:10 *630:78 4.32144e-07
85 *224:10 *1696:A1 1.32167e-05
86 *224:10 *630:63 1.49198e-05
87 *224:16 *630:46 0
88 *229:12 *1696:A1 2.89018e-05
89 *508:8 *630:22 1.03745e-05
90 *600:20 *1517:A1 0.000222699
91 *600:20 *630:22 2.87222e-05
92 *600:22 *630:22 2.80114e-05
93 *600:46 *1517:A1 2.52965e-06
94 *603:14 *630:22 2.08098e-06
*RES
1 *1512:ZN *630:4 5 
2 *630:4 *630:14 24.3929 
3 *630:14 *630:18 13.75 
4 *630:18 *630:22 44.6072 
5 *630:22 *1517:A1 26.75 
6 *630:14 *1622:A3 5 
7 *630:4 *630:42 22.8572 
8 *630:42 *630:46 43.25 
9 *630:46 *1696:A1 15.75 
10 *630:46 *630:63 25.0714 
11 *630:63 *1669:A1 5 
12 *630:63 *630:78 45.1072 
13 *630:78 *1711:A1 5 
*END

*D_NET *631 0.00135961
*CONN
*I *1515:A1 I *D NOR2_X2
*I *1951:A1 I *D NOR2_X2
*I *2007:A1 I *D NOR2_X2
*I *1987:A1 I *D NOR2_X1
*I *1513:ZN O *D NAND2_X4
*CAP
1 *1515:A1 4.25311e-05
2 *1951:A1 4.35653e-06
3 *2007:A1 8.91127e-05
4 *1987:A1 8.3896e-06
5 *1513:ZN 6.48014e-05
6 *631:36 0.000107743
7 *631:10 0.000315772
8 *631:6 0.000343927
9 *1515:A1 *633:8 0
10 *1515:A1 *1040:8 7.19234e-06
11 *1987:A1 *1805:B1 1.25189e-05
12 *1987:A1 *1992:S 1.25189e-05
13 *1987:A1 *1062:17 2.39679e-06
14 *2007:A1 *1992:B 9.05188e-05
15 *2007:A1 *837:40 9.05188e-05
16 *2007:A1 *852:10 0
17 *2007:A1 *1061:23 8.43226e-05
18 *631:6 *1039:10 0
19 *631:10 *876:8 1.12235e-05
20 *631:10 *1061:10 2.96272e-05
21 *631:10 *1061:23 2.89018e-05
22 *631:10 *1282:83 0
23 *631:36 *1039:10 0
24 *1513:A2 *631:6 1.08381e-05
25 *154:27 *631:6 2.39679e-06
*RES
1 *1513:ZN *631:6 11.75 
2 *631:6 *631:10 29.6786 
3 *631:10 *1987:A1 11.25 
4 *631:10 *2007:A1 23.75 
5 *631:6 *631:36 6.42857 
6 *631:36 *1951:A1 5.92857 
7 *631:36 *1515:A1 9.67857 
*END

*D_NET *632 0.00261311
*CONN
*I *2046:A2 I *D NOR2_X2
*I *2197:A2 I *D NOR2_X2
*I *2122:A2 I *D NOR2_X1
*I *1515:A2 I *D NOR2_X2
*I *1514:ZN O *D INV_X1
*CAP
1 *2046:A2 4.28525e-05
2 *2197:A2 0.000144599
3 *2122:A2 0
4 *1515:A2 0
5 *1514:ZN 0.00017983
6 *632:21 0.000108291
7 *632:19 0.000652379
8 *632:10 0.000825664
9 *2046:A2 *876:12 4.85556e-05
10 *2197:A2 *1809:A2 0
11 *2197:A2 *1809:A3 2.23871e-06
12 *2197:A2 *1809:A4 6.48216e-07
13 *2197:A2 *2197:A1 7.72792e-06
14 *2197:A2 *837:360 0
15 *2197:A2 *876:12 3.19164e-07
16 *632:10 *1039:10 0
17 *632:10 *1303:842 0
18 *632:19 *1807:A1 9.17959e-05
19 *632:19 *1807:B1 5.42892e-05
20 *632:19 *1807:B2 8.16216e-06
21 *632:19 *1808:A1 2.51177e-05
22 *632:19 *636:52 0
23 *632:19 *910:10 0.000100249
24 *632:19 *1075:14 0
25 *632:19 *1075:27 0
26 *632:19 *1295:75 0
27 *1414:D *632:19 0
28 *1785:B2 *632:19 0
29 *1973:A *632:19 0
30 *2145:A *632:19 0
31 *2159:A1 *2197:A2 0.000120658
32 *388:23 *632:19 6.15743e-05
33 *388:32 *2197:A2 3.02351e-05
34 *388:32 *632:19 8.8089e-05
35 *448:10 *2046:A2 1.98351e-05
*RES
1 *1514:ZN *632:10 28.5 
2 *632:10 *1515:A2 10 
3 *632:10 *632:19 81 
4 *632:19 *632:21 0.75 
5 *632:21 *2122:A2 10 
6 *632:21 *2197:A2 22.9643 
7 *2197:A2 *2046:A2 16.8571 
*END

*D_NET *633 0.00873758
*CONN
*I *2366:A2 I *D NAND2_X1
*I *1516:A I *D INV_X2
*I *1983:A2 I *D NAND2_X2
*I *1970:A2 I *D NAND2_X1
*I *1978:A2 I *D NAND2_X1
*I *1977:B2 I *D OAI21_X1
*I *1976:A2 I *D NAND2_X1
*I *1621:A2 I *D NAND2_X1
*I *1659:A I *D OAI21_X1
*I *1604:A2 I *D NAND3_X1
*I *1973:S I *D MUX2_X1
*I *1515:ZN O *D NOR2_X2
*CAP
1 *2366:A2 6.22539e-06
2 *1516:A 3.20038e-05
3 *1983:A2 0.000155263
4 *1970:A2 7.14252e-05
5 *1978:A2 0
6 *1977:B2 1.33518e-05
7 *1976:A2 4.51861e-06
8 *1621:A2 6.62487e-06
9 *1659:A 4.70504e-05
10 *1604:A2 7.01167e-05
11 *1973:S 0
12 *1515:ZN 4.5443e-05
13 *633:115 0.000498941
14 *633:104 0.000478994
15 *633:100 0.000546198
16 *633:92 0.00040892
17 *633:48 0.000180357
18 *633:44 0.000510242
19 *633:27 0.000453677
20 *633:25 0.000595622
21 *633:23 0.000615099
22 *633:21 0.000141909
23 *633:19 0.000451113
24 *633:8 0.000287716
25 *1516:A *845:67 0
26 *1604:A2 *1552:A1 3.27005e-06
27 *1604:A2 *1604:A1 2.75346e-06
28 *1604:A2 *1604:A3 1.28415e-05
29 *1604:A2 *1608:A2 0
30 *1604:A2 *637:14 6.68461e-05
31 *1604:A2 *644:22 6.63045e-05
32 *1621:A2 *709:14 7.72792e-06
33 *1659:A *1659:B1 7.72537e-06
34 *1659:A *751:12 2.84121e-05
35 *1970:A2 *1756:B1 1.52083e-06
36 *1970:A2 *1970:A1 3.09411e-06
37 *1970:A2 *1972:A1 2.75346e-06
38 *1970:A2 *1972:A2 1.46594e-05
39 *1970:A2 *1040:55 0
40 *1970:A2 *1298:33 1.62643e-06
41 *1970:A2 *1298:48 5.20238e-07
42 *1970:A2 *1303:908 3.63228e-05
43 *1970:A2 *1308:37 1.23973e-05
44 *1976:A2 *1976:A1 4.64501e-06
45 *1976:A2 *1977:A 7.72537e-06
46 *1983:A2 *1761:A1 6.48216e-07
47 *1983:A2 *845:87 2.90622e-05
48 *1983:A2 *1303:908 0
49 *2366:A2 *2366:A1 1.21774e-06
50 *633:8 *1040:8 5.74951e-06
51 *633:19 *1973:B 2.55331e-06
52 *633:19 *636:8 0
53 *633:19 *944:8 1.9887e-05
54 *633:19 *1040:8 0
55 *633:19 *1295:50 2.69895e-05
56 *633:19 *1297:14 1.50966e-05
57 *633:19 *1297:20 3.90865e-05
58 *633:21 *1843:A 1.94363e-05
59 *633:21 *1843:B2 2.87087e-05
60 *633:21 *1844:A 9.28355e-05
61 *633:21 *1977:A 5.09785e-05
62 *633:21 *1977:B1 7.61956e-05
63 *633:21 *944:8 3.32454e-05
64 *633:21 *1295:50 4.131e-05
65 *633:23 *1977:A 3.21131e-05
66 *633:25 *1535:A 1.60077e-05
67 *633:25 *1537:A1 4.04557e-06
68 *633:25 *1538:A1 3.71691e-05
69 *633:25 *1977:A 1.66988e-05
70 *633:25 *640:24 0.000310586
71 *633:25 *648:30 4.53907e-05
72 *633:25 *652:10 5.31025e-05
73 *633:25 *652:31 0.000121108
74 *633:44 *1552:A1 3.58288e-05
75 *633:44 *1553:A1 1.25215e-05
76 *633:44 *1553:A2 2.86475e-06
77 *633:44 *653:41 0
78 *633:44 *653:43 1.08333e-05
79 *633:48 *1550:B1 0
80 *633:48 *1622:A1 6.68103e-06
81 *633:48 *1624:A 9.17282e-06
82 *633:48 *1625:A1 9.0603e-05
83 *633:48 *648:66 2.51136e-06
84 *633:48 *751:12 1.90574e-06
85 *633:48 *751:14 2.46481e-05
86 *633:100 *1344:CK 2.65134e-05
87 *633:100 *1400:CK 0
88 *633:100 *2366:A1 3.85541e-05
89 *633:100 *634:8 0
90 *633:100 *845:67 0
91 *633:100 *1299:19 0
92 *633:100 *1303:889 0
93 *633:104 *1980:A1 0
94 *633:104 *634:131 0
95 *633:104 *845:67 0
96 *633:104 *845:74 0
97 *633:104 *1303:889 0
98 *633:115 *1756:B1 1.31443e-05
99 *633:115 *1761:A1 6.78878e-05
100 *633:115 *1971:A1 3.31448e-05
101 *633:115 *1980:A2 2.83434e-06
102 *633:115 *634:146 0
103 *633:115 *845:74 0
104 *633:115 *845:87 9.66611e-07
105 *1395:D *633:115 6.38784e-06
106 *1400:D *633:100 1.81442e-05
107 *1407:D *633:115 4.55949e-09
108 *1515:A1 *633:8 0
109 *1550:A *1604:A2 0
110 *1599:A2 *1659:A 6.72155e-05
111 *1622:A2 *633:48 5.42262e-05
112 *1761:A2 *1970:A2 0.000133403
113 *1761:A2 *633:115 1.72426e-05
114 *2279:A1 *633:44 1.16447e-05
115 *2367:A2 *633:100 0
116 *2368:A1 *633:100 3.02351e-05
117 *2368:A2 *633:92 9.57492e-07
118 *2368:A2 *633:100 7.19036e-06
119 *507:12 *1604:A2 5.14977e-05
120 *507:12 *633:44 0.000413844
121 *605:15 *633:44 0
122 *629:10 *633:25 0.000399046
123 *629:14 *633:25 0.000105834
124 *630:14 *1659:A 1.41532e-05
125 *630:14 *633:48 4.76053e-06
*RES
1 *1515:ZN *633:8 9.85714 
2 *633:8 *1973:S 5 
3 *633:8 *633:19 32.6072 
4 *633:19 *633:21 20.4286 
5 *633:21 *633:23 1.78571 
6 *633:23 *633:25 83.0357 
7 *633:25 *633:27 5 
8 *633:27 *1604:A2 25.1429 
9 *633:27 *633:44 49.25 
10 *633:44 *633:48 20.8571 
11 *633:48 *1659:A 17.7857 
12 *633:48 *1621:A2 10.75 
13 *633:23 *1976:A2 10.75 
14 *633:21 *1977:B2 11.5 
15 *633:19 *633:92 14.25 
16 *633:92 *633:100 43.6786 
17 *633:100 *633:104 20.5357 
18 *633:104 *1978:A2 5 
19 *633:104 *633:115 34.9286 
20 *633:115 *1970:A2 21.8571 
21 *633:115 *1983:A2 26.6786 
22 *633:100 *1516:A 8.85714 
23 *633:92 *2366:A2 5.75 
*END

*D_NET *634 0.0122875
*CONN
*I *1975:B2 I *D OAI21_X1
*I *1974:A1 I *D NAND2_X1
*I *1981:A1 I *D NAND2_X1
*I *1982:B2 I *D OAI21_X1
*I *1984:A1 I *D NAND2_X1
*I *1971:A1 I *D NAND2_X1
*I *1979:A1 I *D NAND2_X1
*I *2367:A1 I *D NAND2_X1
*I *1517:A2 I *D NAND2_X1
*I *1555:A I *D AOI21_X1
*I *1713:B2 I *D OAI21_X1
*I *1672:B1 I *D OAI21_X1
*I *1698:B2 I *D OAI21_X1
*I *1624:B2 I *D OAI21_X1
*I *2307:A I *D AOI21_X1
*I *1516:ZN O *D INV_X2
*CAP
1 *1975:B2 0
2 *1974:A1 2.94489e-05
3 *1981:A1 0
4 *1982:B2 3.93144e-05
5 *1984:A1 8.71307e-06
6 *1971:A1 9.79185e-05
7 *1979:A1 3.10884e-05
8 *2367:A1 0.000118817
9 *1517:A2 0
10 *1555:A 0
11 *1713:B2 0.000210671
12 *1672:B1 0
13 *1698:B2 0.00015059
14 *1624:B2 0
15 *2307:A 0.000115432
16 *1516:ZN 0.00034887
17 *634:176 0.000157022
18 *634:174 0.000147156
19 *634:172 1.50803e-05
20 *634:170 0.000435748
21 *634:161 0.000723556
22 *634:146 0.000585459
23 *634:131 0.000404867
24 *634:83 0.000259126
25 *634:72 0.000267603
26 *634:62 0.000656161
27 *634:55 0.000698058
28 *634:51 0.000325263
29 *634:26 0.000529317
30 *634:14 0.000379891
31 *634:10 0.000864929
32 *634:8 0.000971389
33 *1698:B2 *1698:A 4.24039e-05
34 *1698:B2 *1699:A1 3.1184e-05
35 *1698:B2 *637:96 8.07019e-05
36 *1713:B2 *1678:A1 9.5153e-06
37 *1713:B2 *1712:A1 0.000102484
38 *1713:B2 *1713:A 0.000120374
39 *1971:A1 *1761:A1 1.62366e-05
40 *1971:A1 *1762:B2 5.64598e-05
41 *1971:A1 *1303:908 7.19036e-06
42 *1974:A1 *1975:A 2.94455e-05
43 *1974:A1 *1975:B1 1.07633e-05
44 *1974:A1 *756:54 1.14365e-05
45 *1974:A1 *811:40 4.92317e-06
46 *1974:A1 *1309:107 0
47 *1979:A1 *1980:A2 9.70656e-05
48 *1979:A1 *983:10 0
49 *1979:A1 *1294:52 5.56848e-05
50 *1982:B2 *811:40 1.25431e-05
51 *1982:B2 *1309:92 0
52 *2307:A *1570:A 3.98578e-06
53 *2307:A *1600:B1 1.25288e-05
54 *2307:A *648:60 2.43271e-05
55 *2307:A *672:22 6.0406e-05
56 *2307:A *684:27 0
57 *2367:A1 *1344:CK 1.66988e-05
58 *2367:A1 *1400:CK 1.11753e-05
59 *2367:A1 *1305:48 5.11206e-05
60 *634:8 *1400:CK 7.19036e-06
61 *634:8 *845:54 2.23415e-06
62 *634:8 *845:67 2.24327e-06
63 *634:10 *1344:CK 0.000120306
64 *634:10 *653:16 3.47376e-05
65 *634:10 *1298:12 0.000174046
66 *634:14 *1556:A 2.36876e-06
67 *634:14 *1556:B1 8.55319e-06
68 *634:14 *1556:B2 2.96272e-05
69 *634:14 *653:16 8.23092e-05
70 *634:26 *1555:B1 7.72792e-06
71 *634:26 *1555:B2 2.16072e-07
72 *634:26 *1556:A 2.52965e-06
73 *634:26 *1556:B2 2.52965e-06
74 *634:26 *672:39 7.9381e-07
75 *634:26 *684:27 0.000167083
76 *634:51 *1594:B1 0
77 *634:51 *648:60 3.51173e-05
78 *634:51 *648:66 1.09285e-05
79 *634:51 *672:22 7.67801e-05
80 *634:55 *1621:A1 3.65322e-06
81 *634:55 *1623:A1 1.26998e-05
82 *634:55 *1624:A 0
83 *634:55 *648:78 3.78407e-05
84 *634:55 *709:14 1.84256e-05
85 *634:62 *1546:A 5.52692e-06
86 *634:62 *1706:A1 9.47198e-06
87 *634:62 *642:93 0
88 *634:62 *648:78 7.71612e-05
89 *634:62 *664:12 0.00010327
90 *634:72 *647:110 8.70497e-06
91 *634:72 *810:18 5.48932e-05
92 *634:83 *1672:B2 8.57884e-06
93 *634:83 *1712:A1 2.49693e-05
94 *634:83 *637:96 7.66675e-07
95 *634:131 *1980:A1 1.32323e-05
96 *634:131 *1980:A2 4.69702e-07
97 *634:131 *845:67 5.85454e-05
98 *634:131 *1294:52 8.95027e-06
99 *634:146 *1395:CK 0.000182986
100 *634:146 *845:87 0
101 *634:146 *1308:20 1.87369e-06
102 *634:146 *1308:24 2.9035e-05
103 *634:161 *845:87 0
104 *634:161 *1064:35 0
105 *634:161 *1064:41 0
106 *634:161 *1303:925 0
107 *634:161 *1308:20 2.00206e-05
108 *634:170 *1898:A1 0
109 *634:170 *1899:A1 6.07323e-06
110 *634:170 *1899:B1 3.46934e-05
111 *634:170 *1935:A1 2.87703e-06
112 *634:170 *1975:B1 2.23415e-06
113 *634:170 *756:41 2.55787e-06
114 *634:170 *837:491 8.17188e-05
115 *634:170 *1064:41 0
116 *634:170 *1303:925 0
117 *634:170 *1309:55 8.63438e-05
118 *634:170 *1309:66 1.61774e-05
119 *634:176 *811:40 6.75329e-05
120 *634:176 *1309:107 0
121 *1395:D *634:131 1.21774e-06
122 *1395:D *634:146 1.69265e-05
123 *1400:D *2367:A1 0
124 *1407:D *634:146 7.74711e-06
125 *1466:A *634:62 0
126 *1543:A *634:62 0
127 *1546:B1 *634:62 6.93528e-05
128 *1549:A1 *634:51 9.36288e-06
129 *1549:A2 *634:51 9.02287e-06
130 *1593:A *634:62 6.40152e-06
131 *1670:A2 *634:72 6.05817e-05
132 *1671:A *634:72 0
133 *1671:B *634:62 7.73241e-06
134 *1671:B *634:72 6.86327e-05
135 *1679:A2 *634:62 0
136 *1761:A2 *1971:A1 0.000119619
137 *1898:A2 *634:170 0
138 *1898:A2 *634:176 0
139 *1935:A2 *634:161 3.09411e-06
140 *1935:A2 *634:170 1.21774e-06
141 *1974:A2 *1974:A1 0
142 *1979:A2 *1979:A1 3.02351e-05
143 *1981:A2 *1982:B2 0
144 *1981:A2 *634:176 0
145 *1984:A2 *634:161 1.40196e-06
146 *2273:B2 *634:8 6.60887e-05
147 *2274:A2 *2367:A1 2.23871e-06
148 *2282:A3 *634:51 0
149 *2367:A2 *2367:A1 1.34578e-05
150 *2396:B *634:55 2.07819e-05
151 *2397:A *634:51 6.09384e-05
152 *2397:B *634:51 0.000163046
153 *2397:B *634:55 2.25683e-05
154 *2415:A *634:62 0
155 *3:42 *634:62 0
156 *5:64 *634:51 0.000112929
157 *8:41 *634:26 1.07067e-05
158 *75:8 *1979:A1 7.19036e-06
159 *75:8 *634:146 0
160 *79:8 *1971:A1 3.09411e-06
161 *191:10 *634:51 2.08098e-06
162 *193:45 *634:55 4.5256e-05
163 *226:8 *634:62 4.7433e-05
164 *226:17 *634:62 9.37232e-06
165 *507:12 *634:26 1.02269e-05
166 *515:8 *634:10 0
167 *515:8 *634:14 0
168 *549:8 *634:26 3.57409e-05
169 *630:14 *634:55 1.68643e-06
170 *630:18 *634:55 1.51875e-05
171 *630:22 *634:51 3.0023e-06
172 *633:100 *634:8 0
173 *633:104 *634:131 0
174 *633:115 *1971:A1 3.31448e-05
175 *633:115 *634:146 0
*RES
1 *1516:ZN *634:8 28.25 
2 *634:8 *634:10 83.7143 
3 *634:10 *634:14 28.3214 
4 *634:14 *634:26 35.9286 
5 *634:26 *2307:A 29.1429 
6 *634:26 *634:51 43.3572 
7 *634:51 *634:55 14.6786 
8 *634:55 *1624:B2 5 
9 *634:55 *634:62 68.25 
10 *634:62 *634:72 25.7143 
11 *634:72 *1698:B2 31.2857 
12 *634:72 *634:83 6.35715 
13 *634:83 *1672:B1 10 
14 *634:83 *1713:B2 40.1072 
15 *634:14 *1555:A 5 
16 *634:10 *1517:A2 10 
17 *634:8 *2367:A1 23.8929 
18 *1516:ZN *634:131 25.8572 
19 *634:131 *1979:A1 21.4286 
20 *634:131 *634:146 24.75 
21 *634:146 *1971:A1 30.9286 
22 *634:146 *634:161 29.75 
23 *634:161 *1984:A1 5.92857 
24 *634:161 *634:170 50.25 
25 *634:170 *634:172 1.60714 
26 *634:172 *634:174 5 
27 *634:174 *634:176 15.8571 
28 *634:176 *1982:B2 14.3214 
29 *634:176 *1981:A1 10 
30 *634:174 *1974:A1 14.3214 
31 *634:172 *1975:B2 5 
*END

*D_NET *635 0.000243205
*CONN
*I *1523:A1 I *D NOR3_X4
*I *1517:ZN O *D NAND2_X1
*CAP
1 *1523:A1 6.142e-05
2 *1517:ZN 6.142e-05
3 *2392:A *1523:A1 3.55291e-05
4 *600:20 *1523:A1 8.48361e-05
*RES
1 *1517:ZN *1523:A1 19.1786 
*END

*D_NET *636 0.0086776
*CONN
*I *1848:A2 I *D NAND2_X1
*I *1821:A2 I *D NAND2_X1
*I *1900:A2 I *D NAND2_X1
*I *1937:A2 I *D NAND2_X1
*I *1763:A2 I *D NAND2_X1
*I *1887:A2 I *D NAND2_X1
*I *2276:A2 I *D NAND2_X1
*I *1808:A2 I *D NAND2_X1
*I *1524:A1 I *D NAND2_X2
*I *1519:A1 I *D AND2_X2
*I *1518:ZN O *D NOR2_X4
*CAP
1 *1848:A2 1.29895e-05
2 *1821:A2 3.81247e-05
3 *1900:A2 0.000119747
4 *1937:A2 0
5 *1763:A2 0
6 *1887:A2 0
7 *2276:A2 0
8 *1808:A2 4.8257e-05
9 *1524:A1 0
10 *1519:A1 0.00014121
11 *1518:ZN 0.000253256
12 *636:107 0.000504485
13 *636:98 0.000688359
14 *636:87 0.00058238
15 *636:76 0.000552674
16 *636:67 0.000605222
17 *636:61 0.000434851
18 *636:52 0.000397284
19 *636:14 0.000158478
20 *636:10 0.000422807
21 *636:8 0.000879142
22 *1519:A1 *1534:A2 0
23 *1519:A1 *1537:A1 0
24 *1519:A1 *1537:A2 0
25 *1519:A1 *1537:B2 1.08036e-06
26 *1519:A1 *1538:A2 1.02733e-05
27 *1519:A1 *637:8 4.12796e-06
28 *1519:A1 *642:8 6.50827e-06
29 *1519:A1 *651:10 0
30 *1519:A1 *677:8 3.65322e-06
31 *1519:A1 *720:12 8.14241e-05
32 *1519:A1 *733:14 5.39412e-06
33 *1808:A2 *1807:A2 2.39679e-06
34 *1808:A2 *1808:A1 6.65423e-06
35 *1808:A2 *1280:325 5.91164e-06
36 *1808:A2 *1295:75 7.0746e-06
37 *1821:A2 *1820:B2 2.51997e-05
38 *1821:A2 *1821:A1 4.21902e-05
39 *1821:A2 *998:10 9.561e-06
40 *1848:A2 *1848:A1 6.56185e-06
41 *1900:A2 *1820:B2 9.1282e-05
42 *1900:A2 *1900:A1 3.02351e-05
43 *1900:A2 *998:10 5.69857e-05
44 *636:8 *1398:CK 0
45 *636:8 *1973:B 0
46 *636:8 *1297:20 0
47 *636:8 *1304:36 6.50645e-06
48 *636:8 *1304:51 4.32144e-07
49 *636:10 *1956:S 3.02372e-05
50 *636:10 *1959:A1 2.12363e-05
51 *636:10 *1961:B2 5.38256e-05
52 *636:10 *2388:A 0
53 *636:10 *651:10 0
54 *636:10 *1040:10 0.000338944
55 *636:10 *1297:10 0.000425771
56 *636:10 *1304:51 0
57 *636:14 *1534:A2 0
58 *636:14 *651:10 0
59 *636:52 *1398:CK 0
60 *636:52 *1414:CK 4.47034e-07
61 *636:52 *1807:B2 2.63435e-05
62 *636:52 *1992:B 1.22461e-05
63 *636:52 *845:40 9.01031e-06
64 *636:52 *845:44 2.54776e-05
65 *636:52 *845:46 5.1203e-06
66 *636:52 *1075:14 0.000104589
67 *636:52 *1297:45 6.55703e-05
68 *636:52 *1304:28 1.90574e-06
69 *636:52 *1304:36 0
70 *636:52 *1304:51 0
71 *636:52 *1304:88 4.12459e-06
72 *636:61 *1414:CK 2.08416e-06
73 *636:61 *1280:325 3.34681e-05
74 *636:61 *1295:75 2.42747e-05
75 *636:67 *1412:CK 2.52965e-06
76 *636:67 *1847:A 1.28122e-06
77 *636:67 *1847:B2 1.32348e-05
78 *636:67 *1848:A1 5.00979e-06
79 *636:67 *837:423 0
80 *636:67 *837:438 0
81 *636:67 *1280:336 5.23088e-05
82 *636:67 *1280:351 8.64288e-07
83 *636:67 *1295:75 2.60188e-05
84 *636:76 *1416:CK 6.48216e-07
85 *636:76 *837:438 0
86 *636:76 *837:449 0
87 *636:76 *1075:61 0.00021382
88 *636:76 *1280:351 6.57079e-05
89 *636:87 *1411:CK 4.68293e-05
90 *636:87 *1763:A1 2.39679e-06
91 *636:87 *1887:A1 1.26998e-05
92 *636:87 *2008:A1 6.3924e-06
93 *636:87 *1075:61 0
94 *636:98 *1401:CK 0
95 *636:98 *1411:CK 7.66905e-06
96 *636:98 *1763:A1 1.68643e-06
97 *636:98 *1937:A1 3.09411e-06
98 *636:98 *2008:A1 2.16072e-07
99 *636:98 *2011:A1 0
100 *636:98 *2011:A2 8.26038e-06
101 *636:98 *2023:A2 0
102 *636:98 *1034:8 2.97611e-06
103 *636:98 *1308:106 0
104 *636:98 *1309:19 0
105 *636:107 *1405:CK 0.000194016
106 *636:107 *1817:B1 0
107 *636:107 *1818:B1 4.9678e-06
108 *636:107 *1820:A2 0
109 *636:107 *1820:B1 3.52526e-05
110 *636:107 *1820:B2 2.52965e-06
111 *636:107 *1932:A1 0
112 *636:107 *1937:A1 1.21774e-06
113 *636:107 *1993:A1 7.19036e-06
114 *636:107 *1994:A 1.28122e-06
115 *636:107 *1994:B1 0
116 *636:107 *1309:19 0
117 *1398:D *636:8 2.52965e-06
118 *1411:D *636:87 0
119 *1414:D *636:52 9.3108e-05
120 *1524:A2 *1519:A1 3.97695e-06
121 *1559:A1 *1519:A1 0
122 *1773:A1 *636:8 0
123 *1805:B2 *636:52 3.02351e-05
124 *1806:A2 *636:52 2.49497e-05
125 *1817:B2 *636:107 0
126 *1845:A2 *636:67 0
127 *1956:A *636:10 0.000145606
128 *1956:A *636:52 0.000141904
129 *1973:A *636:52 1.66988e-05
130 *1993:A2 *636:107 0
131 *2271:A2 *636:76 5.75863e-06
132 *2275:A1 *636:76 0
133 *2276:A1 *636:67 7.19036e-06
134 *78:8 *636:52 7.19036e-06
135 *91:10 *636:87 0
136 *165:10 *636:10 0
137 *165:16 *1519:A1 7.72792e-06
138 *165:22 *1519:A1 4.32319e-05
139 *597:10 *636:10 0
140 *597:10 *636:14 0
141 *628:10 *1519:A1 0
142 *632:19 *636:52 0
143 *633:19 *636:8 0
*RES
1 *1518:ZN *636:8 34.25 
2 *636:8 *636:10 68.6429 
3 *636:10 *636:14 1.82143 
4 *636:14 *1519:A1 37.1072 
5 *636:14 *1524:A1 10 
6 *636:8 *636:52 47.0357 
7 *636:52 *1808:A2 10.25 
8 *636:52 *636:61 15.25 
9 *636:61 *636:67 32.7857 
10 *636:67 *2276:A2 5 
11 *636:67 *636:76 38.7143 
12 *636:76 *1887:A2 5 
13 *636:76 *636:87 26.6072 
14 *636:87 *1763:A2 5 
15 *636:87 *636:98 34.8214 
16 *636:98 *1937:A2 5 
17 *636:98 *636:107 45.25 
18 *636:107 *1900:A2 26.5357 
19 *636:107 *1821:A2 15 
20 *636:61 *1848:A2 6.60714 
*END

*D_NET *637 0.00936036
*CONN
*I *1523:A2 I *D NOR3_X4
*I *1607:A1 I *D NAND2_X1
*I *1569:A1 I *D NAND2_X1
*I *1712:A1 I *D NAND2_X1
*I *1670:A1 I *D NAND2_X1
*I *1697:A1 I *D NAND2_X1
*I *1650:A1 I *D NAND2_X1
*I *1628:A1 I *D NAND2_X1
*I *2316:A1 I *D NAND2_X1
*I *1519:ZN O *D AND2_X2
*CAP
1 *1523:A2 0.00012424
2 *1607:A1 8.21847e-05
3 *1569:A1 7.41393e-06
4 *1712:A1 0.000287761
5 *1670:A1 3.12251e-05
6 *1697:A1 0
7 *1650:A1 0
8 *1628:A1 0
9 *2316:A1 0
10 *1519:ZN 8.33638e-05
11 *637:96 0.000509203
12 *637:85 0.000238141
13 *637:77 0.000490005
14 *637:75 0.000481571
15 *637:64 0.000334703
16 *637:51 0.000553102
17 *637:32 0.000461348
18 *637:16 0.000355523
19 *637:14 0.000282366
20 *637:10 0.000300772
21 *637:8 0.000288474
22 *1523:A2 *1527:A1 9.61117e-05
23 *1523:A2 *1527:A2 2.11458e-06
24 *1523:A2 *1532:A1 1.31512e-05
25 *1523:A2 *1532:A2 1.62769e-05
26 *1523:A2 *640:10 0
27 *1523:A2 *648:24 1.28577e-06
28 *1569:A1 *1560:A1 1.32323e-05
29 *1569:A1 *1571:B2 0
30 *1569:A1 *1572:A3 8.26038e-06
31 *1607:A1 *1609:A1 7.16188e-07
32 *1607:A1 *1617:A1 4.79658e-06
33 *1607:A1 *644:20 1.67305e-05
34 *1607:A1 *652:35 5.91576e-05
35 *1670:A1 *1672:A 0
36 *1712:A1 *1672:A 4.72173e-05
37 *1712:A1 *1713:A 4.67278e-05
38 *1712:A1 *1713:B1 0
39 *1712:A1 *1714:A2 0
40 *1712:A1 *1717:A 1.28122e-06
41 *637:8 *720:12 3.50332e-05
42 *637:8 *733:14 0.000252398
43 *637:10 *1617:A1 6.31441e-05
44 *637:10 *644:22 9.55318e-06
45 *637:10 *720:12 4.0242e-05
46 *637:10 *733:14 0.000255641
47 *637:14 *1617:A1 5.48932e-05
48 *637:14 *644:22 0.000167107
49 *637:14 *720:12 3.00916e-05
50 *637:16 *1571:A 1.61002e-06
51 *637:16 *1572:A2 1.90574e-06
52 *637:16 *1572:A3 0.000107416
53 *637:16 *644:22 0.000681541
54 *637:32 *1563:A1 5.62265e-05
55 *637:32 *1564:A1 1.26998e-05
56 *637:32 *1568:A2 2.78969e-05
57 *637:32 *1568:A4 3.96208e-05
58 *637:32 *1572:A2 5.10087e-06
59 *637:32 *644:22 7.50533e-05
60 *637:32 *644:47 2.2688e-05
61 *637:51 *1627:A1 1.91498e-06
62 *637:51 *1630:A1 0
63 *637:51 *1630:A3 2.77301e-05
64 *637:51 *1630:A4 3.83757e-05
65 *637:51 *640:47 1.91954e-06
66 *637:51 *644:47 4.74575e-06
67 *637:51 *644:54 1.85116e-05
68 *637:51 *652:48 0
69 *637:64 *1630:A3 0
70 *637:64 *1635:A1 3.76666e-05
71 *637:64 *1635:A2 2.80727e-05
72 *637:64 *1635:A3 5.90144e-06
73 *637:64 *1635:A4 6.82202e-07
74 *637:64 *1636:A2 3.09143e-06
75 *637:64 *1644:A1 7.72537e-06
76 *637:64 *1647:A1 8.30282e-06
77 *637:64 *1648:A1 6.20349e-05
78 *637:64 *1648:A2 9.56055e-06
79 *637:64 *1648:A3 0
80 *637:64 *1653:A1 2.43548e-06
81 *637:64 *1653:A2 6.22967e-06
82 *637:64 *1653:A3 6.42887e-07
83 *637:64 *1655:B2 0
84 *637:64 *640:47 2.89193e-05
85 *637:64 *652:69 0
86 *637:64 *652:82 0
87 *637:75 *1655:A 4.24402e-05
88 *637:75 *1655:B2 1.92297e-05
89 *637:75 *644:88 0.000102232
90 *637:75 *647:93 1.66988e-05
91 *637:77 *1648:A3 0
92 *637:77 *644:92 0
93 *637:77 *647:76 2.39679e-06
94 *637:77 *647:93 7.19036e-06
95 *637:77 *677:71 6.16397e-05
96 *637:85 *1698:A 6.30856e-06
97 *637:96 *1698:A 1.22216e-05
98 *637:96 *1699:A2 2.14856e-06
99 *1481:A *637:77 2.43548e-06
100 *1519:A1 *637:8 4.12796e-06
101 *1567:A2 *637:32 3.71852e-05
102 *1569:A2 *637:32 3.9832e-05
103 *1598:B1 *637:77 2.08304e-05
104 *1604:A2 *637:14 6.68461e-05
105 *1627:A2 *637:51 9.73906e-06
106 *1629:A2 *637:51 0.000150663
107 *1634:A2 *637:64 0
108 *1644:A2 *637:64 1.32348e-05
109 *1646:A2 *637:75 0
110 *1647:A2 *637:64 4.9678e-06
111 *1650:A2 *637:64 8.43215e-07
112 *1652:A2 *637:64 4.90234e-05
113 *1655:B1 *637:64 9.91569e-06
114 *1655:B1 *637:75 1.27002e-05
115 *1655:B1 *637:77 0
116 *1670:A2 *1670:A1 2.82896e-05
117 *1671:A *1670:A1 0
118 *1691:A2 *637:77 0
119 *1691:A2 *637:85 3.09411e-06
120 *1698:B1 *637:85 1.40196e-06
121 *1698:B1 *637:96 7.16188e-07
122 *1698:B2 *637:96 8.07019e-05
123 *1713:B2 *1712:A1 0.000102484
124 *2315:A2 *637:32 0
125 *2315:A2 *637:51 7.06263e-06
126 *2316:A2 *637:32 2.75346e-06
127 *2316:A2 *637:51 1.00571e-05
128 *2317:A1 *637:51 9.67518e-06
129 *2317:A2 *637:32 4.52313e-06
130 *2317:A2 *637:51 7.54866e-06
131 *2385:B *637:85 0.000132836
132 *2385:CI *637:77 3.11085e-05
133 *2413:A *637:77 7.72792e-06
134 *2417:A *637:77 2.75788e-05
135 *2420:A *637:77 3.27005e-06
136 *1:8 *637:77 0
137 *2:16 *637:77 4.73289e-06
138 *3:30 *637:77 3.40971e-05
139 *4:14 *637:64 7.16188e-07
140 *4:16 *637:64 1.77156e-05
141 *5:16 *637:64 6.64676e-05
142 *5:36 *637:64 0
143 *8:18 *637:32 0
144 *11:12 *637:77 3.09143e-06
145 *14:35 *1607:A1 1.27666e-06
146 *15:53 *1607:A1 1.05661e-05
147 *165:22 *637:8 3.02372e-05
148 *201:8 *637:64 5.62905e-06
149 *210:12 *637:14 5.54348e-05
150 *210:16 *637:14 0.000175664
151 *210:16 *637:16 6.95616e-06
152 *210:51 *637:14 4.18985e-05
153 *212:8 *1607:A1 2.39679e-06
154 *216:12 *637:16 2.48069e-05
155 *216:29 *637:14 2.77917e-07
156 *216:29 *637:16 0.000198466
157 *221:25 *1712:A1 2.39679e-06
158 *600:14 *1523:A2 3.23723e-07
159 *600:20 *1523:A2 2.30152e-05
160 *634:83 *1712:A1 2.49693e-05
161 *634:83 *637:96 7.66675e-07
*RES
1 *1519:ZN *637:8 23.8214 
2 *637:8 *637:10 15.1786 
3 *637:10 *637:14 27.6072 
4 *637:14 *637:16 36.0714 
5 *637:16 *637:32 34.5714 
6 *637:32 *2316:A1 5 
7 *637:32 *637:51 34.4643 
8 *637:51 *1628:A1 5 
9 *637:51 *637:64 44.6429 
10 *637:64 *1650:A1 10 
11 *637:64 *637:75 12.0357 
12 *637:75 *637:77 49.75 
13 *637:77 *637:85 17.7857 
14 *637:85 *1697:A1 5 
15 *637:85 *637:96 29.2143 
16 *637:96 *1670:A1 13.6786 
17 *637:96 *1712:A1 48.5357 
18 *637:16 *1569:A1 11.25 
19 *637:10 *1607:A1 20.75 
20 *637:8 *1523:A2 26.1786 
*END

*D_NET *639 0.000455042
*CONN
*I *1537:B1 I *D AOI22_X1
*I *1559:A2 I *D NOR2_X2
*I *1522:A2 I *D NOR2_X2
*I *1521:ZN O *D INV_X1
*CAP
1 *1537:B1 2.23023e-05
2 *1559:A2 0
3 *1522:A2 4.10893e-05
4 *1521:ZN 0
5 *639:8 5.09085e-05
6 *639:6 3.21214e-05
7 *1522:A2 *1534:A2 4.24423e-05
8 *1522:A2 *642:8 1.72089e-06
9 *1522:A2 *720:12 0
10 *1537:B1 *1534:A2 6.3642e-05
11 *1537:B1 *1537:B2 7.19036e-06
12 *1537:B1 *651:10 1.72426e-05
13 *639:8 *1534:A2 5.19786e-05
14 *639:8 *720:12 0
15 *165:10 *1537:B1 8.06325e-05
16 *165:10 *639:8 1.29947e-05
17 *165:16 *639:8 3.07768e-05
*RES
1 *1521:ZN *639:6 10 
2 *639:6 *639:8 2.96429 
3 *639:8 *1522:A2 14.3214 
4 *639:8 *1559:A2 10 
5 *639:6 *1537:B1 15.0714 
*END

*D_NET *640 0.00593806
*CONN
*I *1523:A3 I *D NOR3_X4
*I *1611:A1 I *D NAND2_X1
*I *1680:A I *D INV_X1
*I *1647:A1 I *D NAND2_X1
*I *1632:A1 I *D NAND2_X1
*I *1564:A1 I *D NAND2_X1
*I *1522:ZN O *D NOR2_X2
*CAP
1 *1523:A3 7.64658e-05
2 *1611:A1 0
3 *1680:A 0.000238903
4 *1647:A1 6.4818e-05
5 *1632:A1 8.71307e-06
6 *1564:A1 7.35592e-05
7 *1522:ZN 0.000144464
8 *640:47 0.000193653
9 *640:41 0.000359025
10 *640:39 0.000352753
11 *640:24 0.000762922
12 *640:22 0.000376324
13 *640:16 0.000226527
14 *640:10 0.000407742
15 *1523:A3 *1532:A1 0
16 *1523:A3 *653:14 6.05817e-05
17 *1564:A1 *1568:A4 1.32348e-05
18 *1647:A1 *1648:A2 1.32348e-05
19 *1647:A1 *1648:A4 0
20 *1647:A1 *771:14 0
21 *1680:A *1626:A1 1.62643e-06
22 *1680:A *1630:A1 3.60384e-06
23 *1680:A *647:63 1.45781e-05
24 *1680:A *709:14 3.05398e-06
25 *1680:A *792:16 2.39679e-06
26 *640:10 *1531:A3 1.27326e-05
27 *640:10 *648:24 1.49774e-05
28 *640:10 *652:31 1.84398e-05
29 *640:10 *653:14 6.94581e-05
30 *640:16 *1527:A1 1.23834e-05
31 *640:16 *1531:A1 1.70636e-06
32 *640:16 *1531:A2 2.67547e-05
33 *640:16 *652:31 2.97011e-06
34 *640:16 *684:27 0
35 *640:22 *1614:A1 2.55787e-06
36 *640:22 *1614:A2 4.44888e-06
37 *640:22 *1614:A3 1.13365e-05
38 *640:22 *1614:A4 1.52895e-05
39 *640:24 *1570:A 0.000256492
40 *640:24 *1614:A3 3.64252e-05
41 *640:24 *1658:A 1.72455e-05
42 *640:24 *648:43 0.000359309
43 *640:24 *652:31 4.18985e-05
44 *640:24 *688:10 1.0369e-05
45 *640:24 *710:16 4.18985e-05
46 *640:39 *1560:A1 0.000196588
47 *640:39 *2314:B2 0
48 *640:39 *652:48 5.27445e-05
49 *640:47 *1630:A1 9.03443e-06
50 *640:47 *1630:A3 7.16188e-07
51 *640:47 *1635:A1 3.71145e-05
52 *640:47 *1636:A1 6.44758e-05
53 *640:47 *1636:A2 2.52965e-06
54 *640:47 *644:73 0
55 *640:47 *652:48 4.6613e-07
56 *640:47 *771:14 0
57 *1522:A1 *640:10 8.52419e-06
58 *1523:A2 *640:10 0
59 *1611:A2 *640:16 0.000106624
60 *1611:A2 *640:22 7.72792e-06
61 *1626:A2 *640:39 3.28688e-05
62 *2392:A *640:16 8.07505e-05
63 *5:49 *1680:A 0.000170108
64 *5:49 *640:47 2.59819e-05
65 *5:64 *1680:A 5.67578e-05
66 *7:34 *1564:A1 5.25317e-05
67 *7:34 *640:24 6.48003e-05
68 *7:74 *640:10 1.27327e-05
69 *14:46 *640:22 0
70 *193:12 *1680:A 2.51631e-06
71 *549:8 *1523:A3 2.07756e-06
72 *629:14 *640:24 0.000233088
73 *633:25 *640:24 0.000310586
74 *637:32 *1564:A1 1.26998e-05
75 *637:51 *640:47 1.91954e-06
76 *637:64 *1647:A1 8.30282e-06
77 *637:64 *640:47 2.89193e-05
*RES
1 *1522:ZN *640:10 22.6071 
2 *640:10 *640:16 29.9286 
3 *640:16 *640:22 9.67857 
4 *640:22 *640:24 64.0357 
5 *640:24 *1564:A1 18.9643 
6 *640:24 *640:39 47.25 
7 *640:39 *640:41 5 
8 *640:41 *640:47 21.0714 
9 *640:47 *1632:A1 5.92857 
10 *640:47 *1647:A1 12.3571 
11 *640:41 *1680:A 43.2143 
12 *640:16 *1611:A1 5 
13 *640:10 *1523:A3 23.7143 
*END

*D_NET *641 0.000310648
*CONN
*I *1532:A1 I *D NAND2_X2
*I *1523:ZN O *D NOR3_X4
*CAP
1 *1532:A1 0.000120901
2 *1523:ZN 0.000120901
3 *1532:A1 *1527:A1 2.52965e-06
4 *1532:A1 *1531:A1 6.65423e-06
5 *1532:A1 *1531:A3 4.05349e-06
6 *1532:A1 *1532:A2 3.99047e-05
7 *1532:A1 *653:14 0
8 *1523:A2 *1532:A1 1.31512e-05
9 *1523:A3 *1532:A1 0
10 *600:20 *1532:A1 2.55331e-06
*RES
1 *1523:ZN *1532:A1 24.2857 
*END

*D_NET *642 0.0100092
*CONN
*I *1527:A1 I *D NAND2_X1
*I *1631:A1 I *D OR2_X1
*I *1711:B1 I *D OAI22_X1
*I *1669:B1 I *D OAI22_X1
*I *1696:B1 I *D OAI22_X1
*I *1649:A1 I *D OR2_X1
*I *2309:B1 I *D OAI22_X1
*I *1557:A1 I *D OR2_X1
*I *1605:A1 I *D OR2_X1
*I *1524:ZN O *D NAND2_X2
*CAP
1 *1527:A1 0.000174127
2 *1631:A1 5.87181e-06
3 *1711:B1 0
4 *1669:B1 0
5 *1696:B1 4.61816e-05
6 *1649:A1 0
7 *2309:B1 0
8 *1557:A1 0.000146029
9 *1605:A1 7.00568e-05
10 *1524:ZN 0.000173207
11 *642:108 0.000167452
12 *642:93 0.000295905
13 *642:76 0.000463716
14 *642:72 0.000421935
15 *642:61 0.000395696
16 *642:51 0.000511661
17 *642:40 0.000551974
18 *642:25 0.000734517
19 *642:12 0.000534638
20 *642:8 0.000532456
21 *1527:A1 *1527:A2 3.05806e-05
22 *1527:A1 *1531:A1 1.82797e-06
23 *1527:A1 *648:24 0
24 *1527:A1 *652:31 5.36441e-07
25 *1557:A1 *1558:A1 0
26 *1557:A1 *1560:A1 0
27 *1557:A1 *1562:A1 2.39679e-06
28 *1557:A1 *1572:A1 8.02183e-05
29 *1557:A1 *652:37 0.000222244
30 *1605:A1 *1609:A1 6.06253e-07
31 *1605:A1 *1609:A2 0
32 *1605:A1 *1609:A4 0
33 *1631:A1 *647:76 0
34 *1631:A1 *652:48 2.14856e-06
35 *1696:B1 *1696:A2 6.85774e-07
36 *642:8 *1534:A2 2.38477e-05
37 *642:8 *1615:A1 7.97612e-07
38 *642:8 *684:8 1.19642e-05
39 *642:12 *1609:A1 0
40 *642:12 *1609:A3 6.94708e-06
41 *642:12 *1615:A1 5.09324e-05
42 *642:12 *644:14 3.47057e-06
43 *642:12 *652:37 7.5234e-06
44 *642:25 *1558:A1 0
45 *642:25 *1609:A4 0
46 *642:25 *652:37 0.000764861
47 *642:40 *1568:A3 9.66611e-07
48 *642:40 *647:48 6.2124e-05
49 *642:51 *1635:A1 7.82526e-06
50 *642:51 *2309:A1 2.33019e-05
51 *642:51 *647:63 1.94781e-05
52 *642:61 *1653:A1 7.57858e-06
53 *642:61 *644:73 0.000548662
54 *642:61 *652:82 7.57858e-06
55 *642:72 *1651:A2 0.000105277
56 *642:72 *1653:A1 3.68173e-05
57 *642:72 *652:82 0.000222305
58 *642:76 *1693:A1 1.85252e-05
59 *642:76 *662:16 5.45647e-05
60 *642:76 *662:29 1.06785e-05
61 *642:93 *1677:A1 1.36515e-05
62 *642:108 *1673:A1 7.72537e-06
63 *642:108 *1714:A1 2.39679e-06
64 *642:108 *810:18 4.79963e-05
65 *642:108 *810:20 0.000100081
66 *1519:A1 *642:8 6.50827e-06
67 *1522:A2 *642:8 1.72089e-06
68 *1523:A2 *1527:A1 9.61117e-05
69 *1532:A1 *1527:A1 2.52965e-06
70 *1542:A *642:76 2.39679e-06
71 *1558:A2 *1557:A1 1.8431e-05
72 *1565:A1 *642:40 5.1203e-06
73 *1605:A2 *1605:A1 2.39679e-06
74 *1607:A2 *642:12 8.58678e-06
75 *1616:B1 *642:12 1.27512e-05
76 *1626:A2 *1631:A1 2.75346e-06
77 *1669:B2 *642:108 9.24246e-06
78 *1692:A2 *1696:B1 2.39679e-06
79 *1696:A1 *1696:B1 6.99376e-05
80 *1696:A1 *642:93 2.96955e-05
81 *1726:A *1557:A1 0
82 *2302:B2 *642:25 0
83 *2303:A2 *642:25 0
84 *2310:A *642:40 2.07669e-05
85 *2310:A *642:51 4.30918e-06
86 *2311:A2 *642:40 4.95679e-05
87 *2311:A2 *642:51 2.39679e-06
88 *2415:A *642:93 4.32144e-07
89 *2416:A *642:76 7.72792e-06
90 *2416:B *642:76 9.58448e-05
91 *2419:A *1696:B1 2.55331e-06
92 *5:49 *642:51 2.91785e-06
93 *5:49 *642:61 3.22858e-06
94 *7:38 *642:40 0
95 *7:66 *642:12 0
96 *7:72 *642:8 1.99111e-05
97 *7:72 *642:12 5.10087e-06
98 *12:27 *642:72 0.000179057
99 *13:38 *642:51 5.1805e-05
100 *14:35 *1605:A1 0
101 *14:35 *642:25 0
102 *15:53 *642:12 9.36292e-05
103 *155:12 *1696:B1 1.58921e-05
104 *155:12 *642:93 5.43795e-05
105 *192:10 *642:51 0.00026202
106 *220:10 *642:108 3.71341e-05
107 *226:8 *642:93 0
108 *226:17 *642:108 0
109 *229:12 *1696:B1 7.80562e-06
110 *507:12 *1605:A1 0
111 *507:12 *642:25 0
112 *600:14 *1527:A1 1.89852e-05
113 *629:27 *642:40 3.80728e-05
114 *629:38 *642:51 4.16496e-05
115 *630:42 *642:76 2.33422e-06
116 *630:46 *642:76 0.000158488
117 *630:63 *642:93 0.000253799
118 *630:63 *642:108 8.43215e-07
119 *630:78 *642:108 0.000561056
120 *634:62 *642:93 0
121 *640:16 *1527:A1 1.23834e-05
*RES
1 *1524:ZN *642:8 27.8929 
2 *642:8 *642:12 27.6429 
3 *642:12 *1605:A1 11.75 
4 *642:12 *642:25 48.0357 
5 *642:25 *1557:A1 31.0357 
6 *642:25 *642:40 40.75 
7 *642:40 *2309:B1 5 
8 *642:40 *642:51 40.25 
9 *642:51 *642:61 23.4571 
10 *642:61 *1649:A1 10 
11 *642:61 *642:72 31.7143 
12 *642:72 *642:76 44.25 
13 *642:76 *1696:B1 16.25 
14 *642:76 *642:93 25.5714 
15 *642:93 *1669:B1 5 
16 *642:93 *642:108 45.1072 
17 *642:108 *1711:B1 5 
18 *642:51 *1631:A1 10.75 
19 *642:8 *1527:A1 40.6072 
*END

*D_NET *643 0.0040697
*CONN
*I *1528:A I *D INV_X1
*I *1707:A3 I *D NAND3_X1
*I *1526:A1 I *D NAND2_X2
*I *1525:ZN O *D NOR2_X4
*CAP
1 *1528:A 0
2 *1707:A3 3.29397e-05
3 *1526:A1 0
4 *1525:ZN 0
5 *643:35 0.00116385
6 *643:29 0.00120824
7 *643:16 0.000148173
8 *643:12 0.0001082
9 *643:8 0.000453474
10 *643:6 0.000416127
11 *1707:A3 *815:12 1.21774e-06
12 *1707:A3 *833:10 4.51078e-06
13 *643:12 *1529:A1 1.91498e-06
14 *643:16 *644:14 3.65322e-06
15 *643:16 *647:14 0
16 *643:29 *644:14 4.19057e-05
17 *643:29 *647:20 0
18 *643:35 *684:25 6.62523e-05
19 *643:35 *684:110 3.78865e-05
20 *1468:A *643:8 5.15068e-05
21 *1510:A2 *643:8 0
22 *1536:B1 *643:8 8.92965e-05
23 *2394:B *643:35 8.33759e-07
24 *3:66 *643:35 1.79968e-06
25 *7:72 *643:29 0
26 *599:8 *643:29 5.04378e-06
27 *600:14 *643:29 6.04034e-05
28 *601:10 *643:8 0
29 *601:14 *643:16 0
30 *601:14 *643:29 0
31 *602:16 *643:35 0.000172474
32 *627:10 *643:8 0
*RES
1 *1525:ZN *643:6 10 
2 *643:6 *643:8 48.4286 
3 *643:8 *643:12 8.75 
4 *643:12 *643:16 7.35715 
5 *643:16 *1526:A1 5 
6 *643:16 *643:29 20.8214 
7 *643:29 *643:35 49.1214 
8 *643:35 *1707:A3 13.25 
9 *643:12 *1528:A 5 
*END

*D_NET *644 0.0102452
*CONN
*I *1616:B2 I *D OAI21_X1
*I *1527:A2 I *D NAND2_X1
*I *1691:A1 I *D OR2_X1
*I *1716:B1 I *D OAI22_X1
*I *1674:B1 I *D OAI22_X1
*I *1655:B2 I *D OAI21_X1
*I *1627:A1 I *D OR2_X1
*I *2315:A1 I *D OR2_X1
*I *1563:A1 I *D OR2_X1
*I *1526:ZN O *D NAND2_X2
*CAP
1 *1616:B2 0
2 *1527:A2 0.000111998
3 *1691:A1 0
4 *1716:B1 7.13779e-05
5 *1674:B1 6.90065e-06
6 *1655:B2 1.63348e-05
7 *1627:A1 2.46918e-05
8 *2315:A1 0
9 *1563:A1 7.50916e-05
10 *1526:ZN 0.000187434
11 *644:98 0.0001802
12 *644:92 0.000502265
13 *644:88 0.000469425
14 *644:73 0.000496228
15 *644:54 0.000597104
16 *644:47 0.000383507
17 *644:22 0.000565365
18 *644:20 0.000485098
19 *644:14 0.000292166
20 *1527:A2 *690:10 0.00020617
21 *1527:A2 *733:14 0.000202218
22 *1563:A1 *1568:A4 2.08416e-06
23 *1655:B2 *1648:A3 7.19036e-06
24 *1655:B2 *652:82 0
25 *1716:B1 *1674:A1 1.97714e-05
26 *1716:B1 *1675:A 3.01743e-06
27 *1716:B1 *1678:A2 6.73878e-05
28 *1716:B1 *1716:A1 7.19103e-05
29 *644:14 *1616:A 2.16072e-07
30 *644:20 *1616:A 2.23871e-06
31 *644:20 *1617:A2 1.67775e-05
32 *644:20 *1617:A3 1.63171e-05
33 *644:20 *652:35 1.28122e-06
34 *644:22 *690:10 0.00117121
35 *644:22 *733:14 1.72405e-05
36 *644:47 *677:39 2.42637e-05
37 *644:73 *1630:A1 9.12177e-06
38 *644:73 *1630:A2 1.86245e-05
39 *644:73 *677:56 2.64113e-05
40 *644:73 *684:52 9.05646e-05
41 *644:88 *1656:A 0
42 *644:88 *647:93 3.51102e-05
43 *644:92 *1694:A1 4.76326e-06
44 *644:92 *1695:A4 2.42414e-05
45 *644:92 *652:88 4.50477e-05
46 *644:98 *810:18 2.01369e-05
47 *1481:A *644:98 7.60773e-05
48 *1523:A2 *1527:A2 2.11458e-06
49 *1527:A1 *1527:A2 3.05806e-05
50 *1569:A2 *1563:A1 1.71238e-05
51 *1598:B1 *644:92 1.6291e-05
52 *1604:A2 *644:22 6.63045e-05
53 *1607:A1 *644:20 1.67305e-05
54 *1616:B1 *644:14 3.02372e-05
55 *1627:A2 *1627:A1 2.75346e-06
56 *1629:A2 *644:54 6.32318e-05
57 *1650:A2 *1655:B2 2.16072e-07
58 *1671:B *1674:B1 2.52965e-06
59 *1674:B2 *644:98 3.74027e-05
60 *1691:A2 *644:92 1.76665e-06
61 *1691:A2 *644:98 2.39679e-06
62 *1694:A2 *644:92 2.82896e-05
63 *1712:A2 *1716:B1 1.72426e-05
64 *1716:B2 *1716:B1 7.72792e-06
65 *2315:A2 *644:54 2.39679e-06
66 *2317:A1 *644:47 3.90891e-05
67 *2317:A2 *644:47 2.11815e-06
68 *2385:B *644:92 2.32283e-06
69 *2385:B *644:98 1.68643e-06
70 *2385:CI *644:92 2.36455e-05
71 *2411:A *1563:A1 0
72 *2414:A *644:92 3.34026e-05
73 *2423:B *644:54 0
74 *5:49 *644:73 0
75 *6:52 *644:14 0
76 *6:52 *644:20 0
77 *6:104 *644:47 0.000155868
78 *7:23 *1563:A1 0
79 *7:34 *1563:A1 0
80 *7:34 *644:22 0
81 *7:66 *644:14 9.40545e-06
82 *7:72 *644:14 0.000106874
83 *15:53 *644:14 2.24822e-06
84 *15:53 *644:20 2.78598e-05
85 *218:8 *1563:A1 6.32461e-06
86 *222:22 *644:98 6.71335e-06
87 *222:24 *1716:B1 0.000280683
88 *222:24 *644:98 0.000261768
89 *226:17 *1674:B1 1.40196e-06
90 *228:8 *644:98 0.000426746
91 *232:6 *644:92 0
92 *600:14 *1527:A2 0.000100625
93 *600:14 *644:14 1.00231e-05
94 *637:10 *644:22 9.55318e-06
95 *637:14 *644:22 0.000167107
96 *637:16 *644:22 0.000681541
97 *637:32 *1563:A1 5.62265e-05
98 *637:32 *644:22 7.50533e-05
99 *637:32 *644:47 2.2688e-05
100 *637:51 *1627:A1 1.91498e-06
101 *637:51 *644:47 4.74575e-06
102 *637:51 *644:54 1.85116e-05
103 *637:64 *1655:B2 0
104 *637:75 *1655:B2 1.92297e-05
105 *637:75 *644:88 0.000102232
106 *637:77 *644:92 0
107 *640:47 *644:73 0
108 *642:12 *644:14 3.47057e-06
109 *642:61 *644:73 0.000548662
110 *643:16 *644:14 3.65322e-06
111 *643:29 *644:14 4.19057e-05
*RES
1 *1526:ZN *644:14 38.8929 
2 *644:14 *644:20 17.6786 
3 *644:20 *644:22 68.7857 
4 *644:22 *1563:A1 19.2857 
5 *644:22 *644:47 43.5714 
6 *644:47 *2315:A1 5 
7 *644:47 *644:54 19.25 
8 *644:54 *1627:A1 7.85714 
9 *644:54 *644:73 39.4343 
10 *644:73 *1655:B2 11.8571 
11 *644:73 *644:88 15.25 
12 *644:88 *644:92 46.1786 
13 *644:92 *644:98 31.1072 
14 *644:98 *1674:B1 10.75 
15 *644:98 *1716:B1 26.6071 
16 *644:92 *1691:A1 5 
17 *644:20 *1527:A2 31.4643 
18 *644:14 *1616:B2 5 
*END

*D_NET *645 0.000119817
*CONN
*I *1531:A1 I *D NOR3_X2
*I *1527:ZN O *D NAND2_X1
*CAP
1 *1531:A1 4.57921e-05
2 *1527:ZN 4.57921e-05
3 *1531:A1 *1531:A2 8.27475e-06
4 *1531:A1 *1531:A3 3.51654e-06
5 *1531:A1 *652:31 6.25343e-06
6 *1527:A1 *1531:A1 1.82797e-06
7 *1532:A1 *1531:A1 6.65423e-06
8 *640:16 *1531:A1 1.70636e-06
*RES
1 *1527:ZN *1531:A1 24.7143 
*END

*D_NET *646 5.69701e-05
*CONN
*I *1529:A1 I *D NOR2_X2
*I *1528:ZN O *D INV_X1
*CAP
1 *1529:A1 2.75275e-05
2 *1528:ZN 2.75275e-05
3 *599:8 *1529:A1 0
4 *643:12 *1529:A1 1.91498e-06
*RES
1 *1528:ZN *1529:A1 13.0357 
*END

*D_NET *647 0.0089235
*CONN
*I *1531:A2 I *D NOR3_X2
*I *1715:A1 I *D NAND2_X1
*I *1676:A1 I *D NAND2_X1
*I *1692:A1 I *D NAND2_X1
*I *1654:A1 I *D NAND2_X1
*I *1626:A1 I *D NAND2_X1
*I *2311:A1 I *D NAND2_X1
*I *1558:A1 I *D NAND2_X1
*I *1606:A1 I *D NAND2_X1
*I *1529:ZN O *D NOR2_X2
*CAP
1 *1531:A2 0.000306408
2 *1715:A1 0.000203765
3 *1676:A1 7.56513e-06
4 *1692:A1 0
5 *1654:A1 8.71307e-06
6 *1626:A1 1.54761e-05
7 *2311:A1 0
8 *1558:A1 0.000138272
9 *1606:A1 0
10 *1529:ZN 0.000101713
11 *647:110 0.000367039
12 *647:97 0.000165723
13 *647:93 0.000672101
14 *647:76 0.00107156
15 *647:63 0.00071569
16 *647:48 0.000640396
17 *647:35 0.000531987
18 *647:33 0.0002726
19 *647:29 0.000258919
20 *647:20 0.00023547
21 *647:14 0.000604498
22 *1558:A1 *1562:A2 1.11168e-06
23 *1558:A1 *1572:A1 1.1144e-06
24 *1558:A1 *652:37 0
25 *1715:A1 *1718:A1 2.16072e-07
26 *1715:A1 *1722:A2 5.86335e-06
27 *1715:A1 *810:20 1.39581e-05
28 *647:29 *1609:A2 3.90865e-05
29 *647:48 *2312:B2 2.76981e-05
30 *647:48 *772:10 0
31 *647:48 *772:14 0
32 *647:63 *2309:A1 2.34839e-05
33 *647:63 *2312:B2 2.39679e-06
34 *647:63 *772:14 0
35 *647:76 *1636:A1 0
36 *647:76 *1648:A4 0
37 *647:76 *1656:A 2.86516e-06
38 *647:76 *1657:A1 1.40196e-06
39 *647:76 *1657:A2 2.55331e-06
40 *647:76 *652:48 0
41 *647:76 *751:8 0
42 *647:76 *771:14 5.53662e-05
43 *647:93 *714:12 3.90453e-05
44 *647:97 *1695:A2 1.23516e-06
45 *647:110 *1669:A2 8.92755e-05
46 *647:110 *1695:A2 6.98723e-07
47 *647:110 *662:16 8.46114e-05
48 *647:110 *810:18 1.40681e-05
49 *1531:A1 *1531:A2 8.27475e-06
50 *1557:A1 *1558:A1 0
51 *1605:A2 *647:29 0
52 *1626:A2 *647:76 4.80114e-06
53 *1631:A1 *647:76 0
54 *1646:A2 *647:93 0
55 *1654:A2 *647:76 6.3924e-06
56 *1669:B2 *647:110 9.20459e-05
57 *1680:A *1626:A1 1.62643e-06
58 *1680:A *647:63 1.45781e-05
59 *1688:A *1715:A1 8.43215e-07
60 *1726:A *1558:A1 2.74145e-06
61 *1728:A *647:35 0
62 *2278:A1 *647:33 3.99139e-05
63 *2309:A2 *647:63 7.19036e-06
64 *2311:A2 *647:48 8.43215e-07
65 *2311:A2 *647:63 1.47658e-05
66 *2312:B1 *647:63 8.2465e-06
67 *2318:A1 *647:48 5.52124e-06
68 *2406:B *647:33 0
69 *2409:B *647:33 4.27786e-05
70 *2:29 *647:97 1.23516e-06
71 *2:29 *647:110 1.06623e-05
72 *2:44 *1715:A1 0.000219131
73 *2:44 *647:110 2.35942e-05
74 *2:59 *1715:A1 1.14365e-05
75 *6:42 *647:20 4.24381e-05
76 *7:51 *1558:A1 8.25598e-06
77 *14:35 *647:29 2.50761e-05
78 *15:28 *1558:A1 0
79 *15:28 *647:33 3.63228e-05
80 *15:41 *647:33 0.000271331
81 *155:10 *1715:A1 0
82 *202:16 *647:14 5.89762e-06
83 *202:16 *647:20 0
84 *214:17 *647:33 9.38978e-05
85 *225:8 *1676:A1 2.52965e-06
86 *236:12 *647:63 1.15036e-05
87 *238:8 *647:63 1.96599e-05
88 *507:10 *647:33 0.000170803
89 *601:14 *647:14 3.35796e-05
90 *602:10 *647:20 0
91 *602:16 *1531:A2 0.00047089
92 *630:78 *1715:A1 0.00030305
93 *630:78 *647:110 9.24246e-06
94 *634:72 *647:110 8.70497e-06
95 *637:75 *647:93 1.66988e-05
96 *637:77 *647:76 2.39679e-06
97 *637:77 *647:93 7.19036e-06
98 *640:16 *1531:A2 2.67547e-05
99 *642:25 *1558:A1 0
100 *642:40 *647:48 6.2124e-05
101 *642:51 *647:63 1.94781e-05
102 *643:16 *647:14 0
103 *643:29 *647:20 0
104 *644:88 *647:93 3.51102e-05
*RES
1 *1529:ZN *647:14 20.9171 
2 *647:14 *647:20 30.7143 
3 *647:20 *1606:A1 5 
4 *647:20 *647:29 10.75 
5 *647:29 *647:33 47.3214 
6 *647:33 *647:35 4.75 
7 *647:35 *1558:A1 29.5 
8 *647:35 *647:48 35.75 
9 *647:48 *2311:A1 5 
10 *647:48 *647:63 40.25 
11 *647:63 *1626:A1 11.6071 
12 *647:63 *647:76 45.25 
13 *647:76 *1654:A1 5.92857 
14 *647:76 *647:93 46.2286 
15 *647:93 *647:97 5.82143 
16 *647:97 *1692:A1 10 
17 *647:97 *647:110 24.3214 
18 *647:110 *1676:A1 10.75 
19 *647:110 *1715:A1 47.4643 
20 *647:14 *1531:A2 29.1 
*END

*D_NET *648 0.00600289
*CONN
*I *1531:A3 I *D NOR3_X2
*I *1623:A1 I *D NOR2_X1
*I *1693:A1 I *D NAND2_X1
*I *1651:A1 I *D NAND2_X1
*I *1570:A I *D INV_X1
*I *1608:A1 I *D NAND2_X1
*I *1530:ZN O *D NOR2_X2
*CAP
1 *1531:A3 5.33524e-05
2 *1623:A1 7.15973e-06
3 *1693:A1 0.000271708
4 *1651:A1 1.50803e-05
5 *1570:A 9.08578e-05
6 *1608:A1 8.248e-05
7 *1530:ZN 0.000243354
8 *648:80 0.000319333
9 *648:78 0.000248088
10 *648:66 0.000505737
11 *648:60 0.000454314
12 *648:43 0.000398356
13 *648:30 0.000404397
14 *648:24 0.000482405
15 *1531:A3 *1532:A2 0
16 *1531:A3 *652:31 1.25589e-05
17 *1570:A *1600:B1 0.000116962
18 *1570:A *1658:A 3.09411e-06
19 *1570:A *772:10 7.2187e-06
20 *1608:A1 *1608:A2 3.78844e-05
21 *1608:A1 *1614:A3 0
22 *1693:A1 *1545:A2 8.26038e-06
23 *1693:A1 *1597:A2 1.12762e-05
24 *1693:A1 *1598:A 5.99828e-06
25 *1693:A1 *1687:A1 0
26 *1693:A1 *662:16 6.96522e-06
27 *1693:A1 *662:29 5.69392e-05
28 *1693:A1 *684:65 0
29 *1693:A1 *803:22 5.40196e-06
30 *648:24 *1538:A1 1.58455e-05
31 *648:24 *690:10 1.43915e-05
32 *648:30 *1538:A1 4.50133e-06
33 *648:30 *690:10 2.11045e-05
34 *648:43 *1614:A3 8.16741e-05
35 *648:60 *1550:B2 1.87637e-06
36 *648:60 *1594:A 1.0499e-05
37 *648:60 *672:22 5.47949e-06
38 *648:66 *1550:B1 5.27673e-05
39 *648:66 *1550:B2 1.25189e-05
40 *648:66 *1621:A1 0
41 *648:66 *1622:A1 2.21086e-05
42 *648:66 *1624:A 2.77939e-05
43 *648:78 *1621:A1 3.83757e-05
44 *648:78 *709:14 6.03249e-05
45 *648:80 *684:65 0
46 *1476:A2 *648:24 1.1519e-06
47 *1511:A2 *648:24 0
48 *1522:A1 *648:24 0
49 *1523:A2 *648:24 1.28577e-06
50 *1527:A1 *648:24 0
51 *1531:A1 *1531:A3 3.51654e-06
52 *1532:A1 *1531:A3 4.05349e-06
53 *1542:A *648:80 0
54 *1550:A *648:60 0
55 *1593:A *648:78 8.49668e-06
56 *1595:A *1693:A1 3.14148e-05
57 *1595:B2 *1693:A1 3.83757e-05
58 *1622:A2 *648:66 8.37458e-06
59 *1622:A2 *648:78 9.77674e-06
60 *1689:B1 *1693:A1 2.39679e-06
61 *2307:A *1570:A 3.98578e-06
62 *2307:A *648:60 2.43271e-05
63 *2397:A *648:66 2.48862e-05
64 *2399:B *648:78 0
65 *2416:A *1693:A1 1.40196e-06
66 *2416:B *1693:A1 2.86475e-06
67 *4:72 *648:78 1.14031e-05
68 *5:64 *648:66 6.06181e-05
69 *12:27 *648:78 3.59756e-05
70 *14:35 *1608:A1 1.37468e-05
71 *164:14 *1693:A1 0
72 *194:8 *648:66 1.26173e-05
73 *198:12 *648:78 0.000155318
74 *210:51 *1608:A1 0
75 *535:6 *1570:A 3.19164e-07
76 *597:32 *648:24 0
77 *600:14 *648:24 0
78 *601:14 *648:24 3.65322e-06
79 *628:21 *648:24 3.85541e-05
80 *629:10 *648:30 0.000336694
81 *630:14 *1623:A1 1.0303e-05
82 *630:14 *648:66 1.85669e-05
83 *630:14 *648:78 2.89018e-05
84 *630:18 *1623:A1 2.39679e-06
85 *630:18 *648:66 5.37952e-06
86 *630:42 *648:78 0
87 *633:25 *648:30 4.53907e-05
88 *633:48 *648:66 2.51136e-06
89 *634:51 *648:60 3.51173e-05
90 *634:51 *648:66 1.09285e-05
91 *634:55 *1623:A1 1.26998e-05
92 *634:55 *648:78 3.78407e-05
93 *634:62 *648:78 7.71612e-05
94 *640:10 *1531:A3 1.27326e-05
95 *640:10 *648:24 1.49774e-05
96 *640:24 *1570:A 0.000256492
97 *640:24 *648:43 0.000359309
98 *642:76 *1693:A1 1.85252e-05
*RES
1 *1530:ZN *648:24 41.3929 
2 *648:24 *648:30 36.0357 
3 *648:30 *1608:A1 14.75 
4 *648:30 *648:43 26.5 
5 *648:43 *1570:A 25.5714 
6 *648:43 *648:60 23.6786 
7 *648:60 *648:66 40.2143 
8 *648:66 *648:78 48.2857 
9 *648:78 *648:80 2.75 
10 *648:80 *1651:A1 6.60714 
11 *648:80 *1693:A1 37.6072 
12 *648:66 *1623:A1 11.25 
13 *648:24 *1531:A3 11.4286 
*END

*D_NET *649 0.000146706
*CONN
*I *1532:A2 I *D NAND2_X2
*I *1531:ZN O *D NOR3_X2
*CAP
1 *1532:A2 4.52621e-05
2 *1531:ZN 4.52621e-05
3 *1523:A2 *1532:A2 1.62769e-05
4 *1531:A3 *1532:A2 0
5 *1532:A1 *1532:A2 3.99047e-05
*RES
1 *1531:ZN *1532:A2 15.8571 
*END

*D_NET *650 0.000533696
*CONN
*I *1538:A1 I *D NOR2_X4
*I *1532:ZN O *D NAND2_X2
*CAP
1 *1538:A1 0.000102848
2 *1532:ZN 0.000102848
3 *1538:A1 *1535:A 2.53626e-06
4 *1538:A1 *1537:A1 0.000206627
5 *1538:A1 *1618:A1 1.87418e-05
6 *1538:A1 *652:10 8.61962e-06
7 *1538:A1 *653:8 2.92366e-05
8 *1538:A1 *656:8 3.65322e-06
9 *1538:A1 *690:10 1.06841e-06
10 *633:25 *1538:A1 3.71691e-05
11 *648:24 *1538:A1 1.58455e-05
12 *648:30 *1538:A1 4.50133e-06
*RES
1 *1532:ZN *1538:A1 36.25 
*END

*D_NET *651 0.000571204
*CONN
*I *1566:A2 I *D NOR2_X2
*I *1537:B2 I *D AOI22_X1
*I *1534:A2 I *D NOR2_X4
*I *1533:ZN O *D INV_X1
*CAP
1 *1566:A2 1.50803e-05
2 *1537:B2 1.20233e-05
3 *1534:A2 8.43276e-05
4 *1533:ZN 4.56679e-05
5 *651:10 0.000126939
6 *1534:A2 *652:10 3.89107e-05
7 *651:10 *1537:A2 1.10223e-05
8 *1519:A1 *1534:A2 0
9 *1519:A1 *1537:B2 1.08036e-06
10 *1519:A1 *651:10 0
11 *1522:A2 *1534:A2 4.24423e-05
12 *1537:B1 *1534:A2 6.3642e-05
13 *1537:B1 *1537:B2 7.19036e-06
14 *1537:B1 *651:10 1.72426e-05
15 *1559:A1 *1534:A2 1.51469e-05
16 *165:10 *651:10 1.46625e-05
17 *636:10 *651:10 0
18 *636:14 *1534:A2 0
19 *636:14 *651:10 0
20 *639:8 *1534:A2 5.19786e-05
21 *642:8 *1534:A2 2.38477e-05
*RES
1 *1533:ZN *651:10 15.7143 
2 *651:10 *1534:A2 22.1429 
3 *651:10 *1537:B2 11.25 
4 *1534:A2 *1566:A2 11.6071 
*END

*D_NET *652 0.0086491
*CONN
*I *1613:A1 I *D NAND2_X1
*I *1708:A1 I *D NAND2_X1
*I *1690:B1 I *D AOI21_X1
*I *1644:A1 I *D NAND2_X1
*I *1634:A1 I *D NAND2_X1
*I *1561:A1 I *D NAND2_X1
*I *1535:A I *D INV_X1
*I *1534:ZN O *D NOR2_X4
*CAP
1 *1613:A1 0
2 *1708:A1 4.37775e-05
3 *1690:B1 0
4 *1644:A1 4.64021e-06
5 *1634:A1 8.8255e-06
6 *1561:A1 3.16552e-05
7 *1535:A 7.15186e-06
8 *1534:ZN 0.000114827
9 *652:97 0.000396199
10 *652:88 0.000693423
11 *652:82 0.000451377
12 *652:69 0.000398028
13 *652:52 0.000340546
14 *652:48 0.00050407
15 *652:39 0.000487017
16 *652:37 0.000399555
17 *652:35 0.000491284
18 *652:31 0.000291648
19 *652:10 0.000321898
20 *1561:A1 *1560:A1 2.26406e-05
21 *1644:A1 *1653:A1 2.75346e-06
22 *1644:A1 *1653:A2 1.87369e-06
23 *652:10 *677:8 4.31363e-05
24 *652:31 *1614:A3 5.41015e-05
25 *652:31 *1614:A4 2.08208e-05
26 *652:35 *1614:A4 8.03358e-06
27 *652:35 *1617:A1 1.04284e-05
28 *652:35 *1617:A2 0
29 *652:37 *1568:A3 4.28143e-05
30 *652:37 *716:16 0
31 *652:37 *720:12 0
32 *652:48 *1560:A1 0.000127263
33 *652:48 *1630:A1 3.09143e-06
34 *652:48 *1630:A3 0
35 *652:48 *1630:A4 0
36 *652:48 *1636:A1 4.26446e-05
37 *652:48 *1636:A2 7.19036e-06
38 *652:48 *751:8 7.63212e-06
39 *652:52 *1635:A2 7.08414e-07
40 *652:52 *1636:A1 4.43868e-06
41 *652:52 *1636:A2 7.63351e-05
42 *652:69 *677:39 6.32677e-05
43 *652:69 *677:56 8.97325e-05
44 *652:82 *1653:A1 2.33042e-05
45 *652:82 *1656:A 4.05251e-05
46 *652:88 *1687:A1 0
47 *652:88 *1689:B2 5.02854e-06
48 *652:88 *1700:A1 1.72426e-05
49 *652:97 *1700:A1 6.28524e-05
50 *652:97 *803:22 6.88076e-05
51 *1482:A *652:88 3.02372e-05
52 *1482:A *652:97 2.94435e-05
53 *1527:A1 *652:31 5.36441e-07
54 *1531:A1 *652:31 6.25343e-06
55 *1531:A3 *652:31 1.25589e-05
56 *1534:A2 *652:10 3.89107e-05
57 *1538:A1 *1535:A 2.53626e-06
58 *1538:A1 *652:10 8.61962e-06
59 *1557:A1 *652:37 0.000222244
60 *1558:A1 *652:37 0
61 *1559:A1 *652:10 1.89851e-06
62 *1560:A2 *652:37 0
63 *1607:A1 *652:35 5.91576e-05
64 *1611:A2 *652:31 1.53007e-05
65 *1626:A2 *652:48 1.60494e-06
66 *1631:A1 *652:48 2.14856e-06
67 *1655:B2 *652:82 0
68 *1708:A2 *1708:A1 2.16072e-07
69 *2305:A2 *652:37 5.67661e-05
70 *2306:B2 *652:37 1.94663e-05
71 *2392:A *652:31 1.24735e-05
72 *2414:A *652:88 2.54506e-05
73 *3:30 *652:88 0
74 *5:36 *1634:A1 1.69801e-05
75 *5:36 *652:52 0
76 *6:87 *1561:A1 2.39679e-06
77 *6:104 *1561:A1 5.56098e-05
78 *6:104 *652:48 0.000322992
79 *7:74 *652:10 0.000156693
80 *9:28 *652:88 0
81 *9:28 *652:97 0
82 *12:16 *652:69 3.25689e-06
83 *12:27 *652:69 3.35525e-06
84 *12:27 *652:82 1.701e-06
85 *13:38 *1634:A1 1.34992e-06
86 *13:38 *652:52 1.58814e-07
87 *14:35 *652:35 5.43947e-06
88 *15:53 *652:35 0
89 *155:12 *652:97 0.000152593
90 *164:10 *652:97 1.90574e-06
91 *210:12 *652:37 0
92 *210:51 *652:37 0
93 *216:29 *652:37 0
94 *221:25 *1708:A1 6.05817e-05
95 *222:22 *652:88 3.90865e-05
96 *230:12 *652:97 3.20955e-05
97 *529:12 *652:37 5.14369e-05
98 *633:25 *1535:A 1.60077e-05
99 *633:25 *652:10 5.31025e-05
100 *633:25 *652:31 0.000121108
101 *637:51 *652:48 0
102 *637:64 *1644:A1 7.72537e-06
103 *637:64 *652:69 0
104 *637:64 *652:82 0
105 *640:10 *652:31 1.84398e-05
106 *640:16 *652:31 2.97011e-06
107 *640:24 *652:31 4.18985e-05
108 *640:39 *652:48 5.27445e-05
109 *640:47 *652:48 4.6613e-07
110 *642:12 *652:37 7.5234e-06
111 *642:25 *652:37 0.000764861
112 *642:61 *652:82 7.57858e-06
113 *642:72 *652:82 0.000222305
114 *644:20 *652:35 1.28122e-06
115 *644:92 *652:88 4.50477e-05
116 *647:76 *652:48 0
*RES
1 *1534:ZN *652:10 28.2143 
2 *652:10 *1535:A 10.9286 
3 *652:10 *652:31 40.4643 
4 *652:31 *652:35 15.75 
5 *652:35 *652:37 64.0357 
6 *652:37 *652:39 5 
7 *652:39 *1561:A1 10.25 
8 *652:39 *652:48 60.75 
9 *652:48 *652:52 10.3929 
10 *652:52 *1634:A1 11.2143 
11 *652:52 *652:69 23.3886 
12 *652:69 *1644:A1 10.75 
13 *652:69 *652:82 21.5357 
14 *652:82 *652:88 43.2143 
15 *652:88 *1690:B1 10 
16 *652:88 *652:97 47.0714 
17 *652:97 *1708:A1 15.75 
18 *652:31 *1613:A1 5 
*END

*D_NET *653 0.00482821
*CONN
*I *1537:A1 I *D AOI22_X1
*I *1681:C1 I *D OAI221_X1
*I *2312:B2 I *D OAI21_X1
*I *1535:ZN O *D INV_X1
*CAP
1 *1537:A1 0.000147035
2 *1681:C1 0
3 *2312:B2 0.000203365
4 *1535:ZN 9.44958e-06
5 *653:43 0.000515202
6 *653:41 0.000759762
7 *653:16 0.000702886
8 *653:14 0.000383484
9 *653:8 0.000285006
10 *1537:A1 *1538:A2 2.23871e-06
11 *1537:A1 *1618:A1 6.19568e-06
12 *1537:A1 *690:10 3.48474e-05
13 *1537:A1 *720:12 3.09411e-06
14 *1537:A1 *733:14 7.9954e-06
15 *1537:A1 *1297:8 0
16 *2312:B2 *1550:B2 6.10046e-05
17 *2312:B2 *1553:A1 4.00754e-05
18 *2312:B2 *1705:A1 5.50501e-05
19 *2312:B2 *1705:A2 3.95459e-06
20 *2312:B2 *1705:A3 7.99561e-05
21 *2312:B2 *672:39 0.000180521
22 *2312:B2 *677:31 2.89309e-05
23 *2312:B2 *772:14 0
24 *2312:B2 *813:8 3.283e-05
25 *2312:B2 *814:16 5.11191e-06
26 *653:8 *690:10 5.9384e-06
27 *653:16 *1553:A1 1.5551e-05
28 *653:16 *1556:A 9.32424e-05
29 *653:16 *1556:B1 4.42782e-06
30 *653:16 *671:8 5.76403e-06
31 *653:16 *672:39 7.49507e-05
32 *653:16 *674:12 6.43316e-05
33 *653:16 *677:29 0.000127206
34 *653:41 *1550:B1 0
35 *653:41 *1552:A1 2.50971e-05
36 *653:41 *1553:A2 4.87096e-06
37 *653:41 *677:29 4.39774e-06
38 *653:43 *1550:B1 0
39 *653:43 *1681:A 2.08416e-06
40 *653:43 *1682:A2 2.39679e-06
41 *653:43 *792:38 8.17926e-05
42 *1488:A2 *653:43 0
43 *1519:A1 *1537:A1 0
44 *1523:A3 *653:14 6.05817e-05
45 *1532:A1 *653:14 0
46 *1538:A1 *1537:A1 0.000206627
47 *1538:A1 *653:8 2.92366e-05
48 *1575:A1 *653:43 0
49 *2312:A *2312:B2 9.43218e-06
50 *2318:A1 *2312:B2 1.94479e-06
51 *2320:A2 *2312:B2 1.54941e-05
52 *2372:B *653:43 0
53 *7:74 *653:14 0.000210971
54 *8:33 *2312:B2 0
55 *12:31 *653:43 0
56 *197:30 *653:43 0
57 *238:8 *2312:B2 2.39679e-06
58 *605:6 *653:43 0
59 *605:15 *653:43 0
60 *633:25 *1537:A1 4.04557e-06
61 *633:44 *653:41 0
62 *633:44 *653:43 1.08333e-05
63 *634:10 *653:16 3.47376e-05
64 *634:14 *653:16 8.23092e-05
65 *640:10 *653:14 6.94581e-05
66 *647:48 *2312:B2 2.76981e-05
67 *647:63 *2312:B2 2.39679e-06
*RES
1 *1535:ZN *653:8 11.6071 
2 *653:8 *653:14 30.25 
3 *653:14 *653:16 40.2857 
4 *653:16 *2312:B2 41.8214 
5 *653:16 *653:41 30 
6 *653:41 *653:43 54.1072 
7 *653:43 *1681:C1 5 
8 *653:8 *1537:A1 30.2143 
*END

*D_NET *654 0.000645434
*CONN
*I *1537:A2 I *D AOI22_X1
*I *1536:ZN O *D OAI21_X1
*CAP
1 *1537:A2 0.000302454
2 *1536:ZN 0.000302454
3 *1537:A2 *1297:8 1.83288e-05
4 *1519:A1 *1537:A2 0
5 *1524:A2 *1537:A2 0
6 *169:12 *1537:A2 1.1175e-05
7 *628:10 *1537:A2 0
8 *651:10 *1537:A2 1.10223e-05
*RES
1 *1536:ZN *1537:A2 40.8572 
*END

*D_NET *655 0.000257298
*CONN
*I *1538:A2 I *D NOR2_X4
*I *1537:ZN O *D AOI22_X1
*CAP
1 *1538:A2 7.98444e-05
2 *1537:ZN 7.98444e-05
3 *1538:A2 *1573:A3 2.66511e-05
4 *1538:A2 *1618:A1 5.40074e-05
5 *1538:A2 *720:12 1.87637e-06
6 *1538:A2 *733:14 0
7 *1519:A1 *1538:A2 1.02733e-05
8 *1524:A2 *1538:A2 0
9 *1537:A1 *1538:A2 2.23871e-06
10 *165:24 *1538:A2 2.56243e-06
*RES
1 *1537:ZN *1538:A2 20.0357 
*END

*D_NET *656 0.00215587
*CONN
*I *1665:A1 I *D NAND2_X1
*I *1640:A I *D OAI21_X1
*I *1620:A I *D INV_X4
*I *1539:A3 I *D NAND3_X1
*I *2299:A2 I *D NAND2_X2
*I *1591:A2 I *D NAND2_X1
*I *1538:ZN O *D NOR2_X4
*CAP
1 *1665:A1 8.27474e-06
2 *1640:A 2.09056e-05
3 *1620:A 0
4 *1539:A3 0
5 *2299:A2 0.000136717
6 *1591:A2 0
7 *1538:ZN 0.000108704
8 *656:51 7.70571e-05
9 *656:47 0.000333343
10 *656:32 0.000470077
11 *656:15 0.000382542
12 *656:8 0.000153369
13 *1640:A *1639:A 0
14 *1640:A *1641:A2 6.21255e-06
15 *1640:A *1665:A2 1.54507e-05
16 *1640:A *735:8 2.89018e-05
17 *1665:A1 *1666:A2 1.04584e-06
18 *2299:A2 *1298:12 0
19 *656:8 *1573:A3 0
20 *656:8 *1591:A1 1.21774e-06
21 *656:8 *1618:A1 1.6935e-05
22 *656:15 *1573:A3 0
23 *656:15 *1591:A1 8.17762e-06
24 *656:32 *1573:A1 7.99278e-06
25 *656:32 *1573:A2 1.45878e-05
26 *656:32 *1573:A3 0
27 *656:32 *1590:A 6.12771e-06
28 *656:32 *1591:A1 1.37468e-05
29 *656:32 *705:16 2.09117e-05
30 *656:47 *1665:A2 1.21774e-06
31 *656:47 *1666:A2 1.29083e-05
32 *656:47 *705:16 0.000170294
33 *656:47 *775:14 0
34 *656:51 *1641:A1 0
35 *656:51 *1641:A2 0
36 *656:51 *1665:A2 2.22661e-05
37 *1500:A *656:47 0
38 *1500:B1 *656:47 0
39 *1500:B2 *656:47 0
40 *1503:A2 *656:32 1.58664e-05
41 *1538:A1 *656:8 3.65322e-06
42 *1539:A1 *656:32 7.29164e-07
43 *1539:A2 *656:32 2.39679e-06
44 *1539:A2 *656:47 1.32348e-05
45 *1590:B *656:32 0
46 *549:8 *2299:A2 8.101e-05
*RES
1 *1538:ZN *656:8 16.6786 
2 *656:8 *1591:A2 5 
3 *656:8 *656:15 4.75 
4 *656:15 *2299:A2 33.5714 
5 *656:15 *656:32 22.1072 
6 *656:32 *1539:A3 5 
7 *656:32 *656:47 42.2857 
8 *656:47 *656:51 6.67857 
9 *656:51 *1620:A 5 
10 *656:51 *1640:A 18.1071 
11 *656:47 *1665:A1 5.92857 
*END

*D_NET *657 0.000444176
*CONN
*I *1573:A1 I *D NAND3_X2
*I *1539:ZN O *D NAND3_X1
*CAP
1 *1573:A1 0.000129649
2 *1539:ZN 0.000129649
3 *1573:A1 *1573:A2 8.43215e-07
4 *1573:A1 *1590:A 3.89107e-05
5 *1573:A1 *705:16 4.59253e-05
6 *165:24 *1573:A1 2.01438e-05
7 *180:10 *1573:A1 6.76399e-05
8 *189:8 *1573:A1 3.42248e-06
9 *656:32 *1573:A1 7.99278e-06
*RES
1 *1539:ZN *1573:A1 36.8929 
*END

*D_NET *660 0.000572242
*CONN
*I *1543:B1 I *D AOI21_X1
*I *1545:A1 I *D NAND2_X1
*I *1651:A2 I *D NAND2_X1
*I *1542:ZN O *D INV_X1
*CAP
1 *1543:B1 0
2 *1545:A1 4.69962e-05
3 *1651:A2 5.78482e-05
4 *1542:ZN 0
5 *660:23 0.00010535
6 *660:6 0.000116202
7 *1545:A1 *1545:A2 2.75346e-06
8 *1545:A1 *1546:B2 6.38784e-06
9 *1545:A1 *1706:A2 6.42887e-07
10 *1651:A2 *684:65 3.09411e-06
11 *1543:A *660:23 3.96215e-05
12 *1543:B2 *1545:A1 3.41146e-05
13 *1593:A *660:23 2.55029e-06
14 *1706:A4 *1545:A1 1.21774e-06
15 *2399:B *660:23 2.38892e-05
16 *12:27 *1651:A2 5.08499e-06
17 *12:27 *660:23 1.017e-05
18 *630:42 *660:23 1.43238e-06
19 *630:46 *1545:A1 2.58428e-06
20 *630:46 *660:23 7.02617e-06
21 *642:72 *1651:A2 0.000105277
*RES
1 *1542:ZN *660:6 10 
2 *660:6 *1651:A2 17.7857 
3 *660:6 *660:23 13.2143 
4 *660:23 *1545:A1 11.6071 
5 *660:23 *1543:B1 5 
*END

*D_NET *661 0.000119814
*CONN
*I *1546:A I *D OAI21_X1
*I *1543:ZN O *D AOI21_X1
*CAP
1 *1546:A 4.3407e-05
2 *1543:ZN 4.3407e-05
3 *1546:A *663:10 6.65138e-06
4 *1546:A *664:12 8.59618e-07
5 *1546:A *814:16 6.72989e-06
6 *1543:A *1546:A 0
7 *1546:B1 *1546:A 1.32323e-05
8 *200:8 *1546:A 0
9 *634:62 *1546:A 5.52692e-06
*RES
1 *1543:ZN *1546:A 24.8929 
*END

*D_NET *662 0.00180203
*CONN
*I *1669:A2 I *D OAI22_X1
*I *1595:B1 I *D AOI21_X1
*I *1545:A2 I *D NAND2_X1
*I *1597:A1 I *D NAND2_X1
*I *1544:ZN O *D INV_X1
*CAP
1 *1669:A2 3.68647e-05
2 *1595:B1 0
3 *1545:A2 0.000111733
4 *1597:A1 1.17625e-05
5 *1544:ZN 0
6 *662:29 0.000150058
7 *662:16 0.000264466
8 *662:6 0.000251243
9 *1545:A2 *1679:A1 7.9103e-06
10 *1545:A2 *714:10 2.94053e-05
11 *1597:A1 *1689:B2 5.56936e-06
12 *1669:A2 *1682:A1 4.21607e-06
13 *662:16 *1689:B2 2.84765e-06
14 *662:16 *1696:A2 2.52965e-06
15 *662:16 *1699:A1 0
16 *662:16 *803:22 7.90453e-05
17 *1545:A1 *1545:A2 2.75346e-06
18 *1595:A *1545:A2 7.72792e-06
19 *1595:A *662:29 2.75346e-06
20 *1692:A2 *662:16 0
21 *1693:A1 *1545:A2 8.26038e-06
22 *1693:A1 *662:16 6.96522e-06
23 *1693:A1 *662:29 5.69392e-05
24 *1706:A4 *1545:A2 2.39218e-05
25 *2416:B *1545:A2 6.58954e-05
26 *2:29 *1669:A2 1.14246e-05
27 *2:29 *662:16 0.000222367
28 *2:44 *1669:A2 9.24264e-05
29 *164:25 *1597:A1 1.045e-05
30 *164:25 *662:16 4.80378e-06
31 *224:16 *662:16 0
32 *229:12 *662:16 3.16205e-05
33 *630:46 *1545:A2 4.25617e-05
34 *630:63 *1669:A2 1.19839e-05
35 *630:78 *1669:A2 2.39679e-06
36 *642:76 *662:16 5.45647e-05
37 *642:76 *662:29 1.06785e-05
38 *647:110 *1669:A2 8.92755e-05
39 *647:110 *662:16 8.46114e-05
*RES
1 *1544:ZN *662:6 10 
2 *662:6 *662:16 41.9643 
3 *662:16 *1597:A1 11.6071 
4 *662:16 *662:29 10.75 
5 *662:29 *1545:A2 30.5 
6 *662:29 *1595:B1 5 
7 *662:6 *1669:A2 16.9286 
*END

*D_NET *663 0.000221305
*CONN
*I *1706:A2 I *D NOR4_X1
*I *1546:B2 I *D OAI21_X1
*I *1545:ZN O *D NAND2_X1
*CAP
1 *1706:A2 8.90234e-06
2 *1546:B2 3.46538e-05
3 *1545:ZN 1.22429e-05
4 *663:10 5.57991e-05
5 *1543:A *1546:B2 1.21774e-06
6 *1545:A1 *1546:B2 6.38784e-06
7 *1545:A1 *1706:A2 6.42887e-07
8 *1546:A *663:10 6.65138e-06
9 *1546:B1 *1546:B2 3.83757e-05
10 *1546:B1 *1706:A2 1.19839e-05
11 *1706:A4 *1706:A2 1.21774e-06
12 *3:44 *663:10 4.32298e-05
*RES
1 *1545:ZN *663:10 17.2857 
2 *663:10 *1546:B2 9.67857 
3 *663:10 *1706:A2 6.25 
*END

*D_NET *664 0.00172162
*CONN
*I *1624:B1 I *D OAI21_X1
*I *1550:B1 I *D AOI21_X1
*I *1621:A1 I *D NAND2_X1
*I *1546:ZN O *D OAI21_X1
*CAP
1 *1624:B1 0
2 *1550:B1 0.000344534
3 *1621:A1 6.63507e-05
4 *1546:ZN 0.000232471
5 *664:14 0.000410885
6 *664:12 0.000232471
7 *1550:B1 *1624:A 2.51703e-05
8 *1550:B1 *1625:A1 2.43271e-05
9 *1550:B1 *1625:A2 5.58452e-05
10 *1550:B1 *792:38 2.35646e-06
11 *1621:A1 *1625:A2 1.68226e-05
12 *1621:A1 *709:14 4.99246e-05
13 *664:12 *1624:A 2.16072e-07
14 *664:12 *740:8 0
15 *664:12 *792:38 0
16 *1546:A *664:12 8.59618e-07
17 *1550:A *1550:B1 2.39679e-06
18 *1679:A2 *664:12 8.95939e-06
19 *193:45 *1621:A1 2.75346e-06
20 *194:8 *1550:B1 3.35822e-05
21 *197:30 *664:12 4.935e-06
22 *200:8 *664:12 6.45596e-06
23 *630:14 *1621:A1 2.23552e-06
24 *633:48 *1550:B1 0
25 *634:55 *1621:A1 3.65322e-06
26 *634:62 *664:12 0.00010327
27 *648:66 *1550:B1 5.27673e-05
28 *648:66 *1621:A1 0
29 *648:78 *1621:A1 3.83757e-05
30 *653:41 *1550:B1 0
31 *653:43 *1550:B1 0
*RES
1 *1546:ZN *664:12 42.3929 
2 *664:12 *664:14 5 
3 *664:14 *1621:A1 18.3929 
4 *664:14 *1550:B1 48.3929 
5 *664:12 *1624:B1 5 
*END

*D_NET *667 0.000328786
*CONN
*I *1550:B2 I *D AOI21_X1
*I *1705:A1 I *D NAND3_X1
*I *1549:ZN O *D NOR2_X1
*CAP
1 *1550:B2 3.45084e-05
2 *1705:A1 2.58449e-05
3 *1549:ZN 0
4 *667:6 6.03533e-05
5 *1550:B2 *677:31 2.27992e-05
6 *1705:A1 *1594:A 1.73151e-05
7 *1705:A1 *1705:A3 7.21335e-06
8 *1705:A1 *677:31 1.6613e-05
9 *1705:A1 *814:16 8.99167e-06
10 *1550:A *1550:B2 2.30024e-06
11 *2312:B2 *1550:B2 6.10046e-05
12 *2312:B2 *1705:A1 5.50501e-05
13 *194:8 *1550:B2 2.39679e-06
14 *648:60 *1550:B2 1.87637e-06
15 *648:66 *1550:B2 1.25189e-05
*RES
1 *1549:ZN *667:6 10 
2 *667:6 *1705:A1 14.7143 
3 *667:6 *1550:B2 15.3929 
*END

*D_NET *668 0.000269137
*CONN
*I *1553:A1 I *D NAND2_X1
*I *1550:ZN O *D AOI21_X1
*CAP
1 *1553:A1 5.30695e-05
2 *1550:ZN 5.30695e-05
3 *1553:A1 *1552:A1 4.52648e-06
4 *1553:A1 *671:8 1.72063e-05
5 *1553:A1 *677:31 6.83269e-05
6 *1552:A2 *1553:A1 4.79033e-06
7 *2312:B2 *1553:A1 4.00754e-05
8 *633:44 *1553:A1 1.25215e-05
9 *653:16 *1553:A1 1.5551e-05
*RES
1 *1550:ZN *1553:A1 28.9643 
*END

*D_NET *669 0.000928862
*CONN
*I *1608:A2 I *D NAND2_X1
*I *1552:A1 I *D NAND2_X1
*I *1551:ZN O *D INV_X1
*CAP
1 *1608:A2 0.000109028
2 *1552:A1 0.000247991
3 *1551:ZN 0
4 *669:6 0.000357019
5 *1552:A1 *1553:A2 3.88456e-06
6 *1552:A1 *1604:A3 1.81478e-05
7 *1552:A1 *690:10 2.04312e-06
8 *1608:A2 *1604:A1 0
9 *1608:A2 *690:10 1.30978e-05
10 *1550:A *1552:A1 0
11 *1553:A1 *1552:A1 4.52648e-06
12 *1604:A2 *1552:A1 3.27005e-06
13 *1604:A2 *1608:A2 0
14 *1608:A1 *1608:A2 3.78844e-05
15 *210:51 *1608:A2 0
16 *507:12 *1608:A2 0
17 *629:10 *1608:A2 1.46625e-05
18 *629:14 *1552:A1 3.91613e-05
19 *629:14 *1608:A2 1.72191e-05
20 *633:44 *1552:A1 3.58288e-05
21 *653:41 *1552:A1 2.50971e-05
*RES
1 *1551:ZN *669:6 10 
2 *669:6 *1552:A1 38.1072 
3 *669:6 *1608:A2 23.5714 
*END

*D_NET *670 3.7935e-05
*CONN
*I *1553:A2 I *D NAND2_X1
*I *1552:ZN O *D NAND2_X1
*CAP
1 *1553:A2 1.31574e-05
2 *1552:ZN 1.31574e-05
3 *1552:A1 *1553:A2 3.88456e-06
4 *633:44 *1553:A2 2.86475e-06
5 *653:41 *1553:A2 4.87096e-06
*RES
1 *1552:ZN *1553:A2 11.9286 
*END

*D_NET *671 0.00025559
*CONN
*I *1556:B2 I *D OAI21_X1
*I *1555:B1 I *D AOI21_X1
*I *1553:ZN O *D NAND2_X1
*CAP
1 *1556:B2 1.65332e-05
2 *1555:B1 4.82248e-06
3 *1553:ZN 3.61009e-05
4 *671:8 5.74566e-05
5 *1555:B1 *1555:B2 3.09411e-06
6 *1556:B2 *1556:B1 3.8126e-05
7 *671:8 *1556:B1 2.94113e-05
8 *1553:A1 *671:8 1.72063e-05
9 *8:41 *1556:B2 7.19036e-06
10 *634:14 *1556:B2 2.96272e-05
11 *634:26 *1555:B1 7.72792e-06
12 *634:26 *1556:B2 2.52965e-06
13 *653:16 *671:8 5.76403e-06
*RES
1 *1553:ZN *671:8 14.3214 
2 *671:8 *1555:B1 10.75 
3 *671:8 *1556:B2 13.0357 
*END

*D_NET *672 0.00190351
*CONN
*I *1555:B2 I *D AOI21_X1
*I *1556:B1 I *D OAI21_X1
*I *1705:A3 I *D NAND3_X1
*I *2302:B1 I *D AOI21_X1
*I *1554:ZN O *D INV_X1
*CAP
1 *1555:B2 7.79333e-06
2 *1556:B1 2.84173e-05
3 *1705:A3 4.25336e-05
4 *2302:B1 9.55837e-05
5 *1554:ZN 0.000244219
6 *672:39 0.000115316
7 *672:22 0.000270274
8 *1555:B2 *1556:A 2.39679e-06
9 *1556:B1 *1556:A 9.31655e-05
10 *1705:A3 *1594:A 4.26239e-05
11 *1705:A3 *710:16 2.77007e-05
12 *672:39 *1556:A 7.72537e-06
13 *672:39 *1594:A 4.80763e-05
14 *672:39 *677:29 0.000118658
15 *1549:A1 *672:22 0.000134158
16 *1550:A *2302:B1 0
17 *1550:A *672:22 0
18 *1555:B1 *1555:B2 3.09411e-06
19 *1556:B2 *1556:B1 3.8126e-05
20 *1705:A1 *1705:A3 7.21335e-06
21 *2300:A1 *2302:B1 1.43388e-05
22 *2302:A *2302:B1 2.16072e-07
23 *2303:A1 *2302:B1 0
24 *2307:A *672:22 6.0406e-05
25 *2312:B2 *1705:A3 7.99561e-05
26 *2312:B2 *672:39 0.000180521
27 *8:33 *1705:A3 0
28 *8:33 *672:39 0
29 *8:41 *1556:B1 1.26998e-05
30 *507:12 *1555:B2 1.0303e-05
31 *507:12 *672:39 1.73839e-05
32 *634:14 *1556:B1 8.55319e-06
33 *634:26 *1555:B2 2.16072e-07
34 *634:26 *672:39 7.9381e-07
35 *634:51 *672:22 7.67801e-05
36 *648:60 *672:22 5.47949e-06
37 *653:16 *1556:B1 4.42782e-06
38 *653:16 *672:39 7.49507e-05
39 *671:8 *1556:B1 2.94113e-05
*RES
1 *1554:ZN *2302:B1 19.6786 
2 *1554:ZN *672:22 31.25 
3 *672:22 *1705:A3 17.0714 
4 *672:22 *672:39 20.5714 
5 *672:39 *1556:B1 21.25 
6 *672:39 *1555:B2 6.25 
*END

*D_NET *673 0.00028467
*CONN
*I *1556:A I *D OAI21_X1
*I *1555:ZN O *D AOI21_X1
*CAP
1 *1556:A 4.07773e-05
2 *1555:ZN 4.07773e-05
3 *1555:B2 *1556:A 2.39679e-06
4 *1556:B1 *1556:A 9.31655e-05
5 *8:41 *1556:A 1.68643e-06
6 *14:46 *1556:A 0
7 *634:14 *1556:A 2.36876e-06
8 *634:26 *1556:A 2.52965e-06
9 *653:16 *1556:A 9.32424e-05
10 *672:39 *1556:A 7.72537e-06
*RES
1 *1555:ZN *1556:A 27.5 
*END

*D_NET *674 0.00117519
*CONN
*I *1573:A2 I *D NAND3_X2
*I *1556:ZN O *D OAI21_X1
*CAP
1 *1573:A2 3.21053e-05
2 *1556:ZN 1.82606e-05
3 *674:12 0.000352251
4 *674:8 0.000338406
5 *1573:A2 *1573:A3 4.29718e-06
6 *1573:A2 *1298:8 3.09143e-06
7 *674:12 *677:12 7.53452e-05
8 *674:12 *677:29 0.00024882
9 *674:12 *1298:12 6.49787e-06
10 *1573:A1 *1573:A2 8.43215e-07
11 *8:41 *674:8 1.63523e-05
12 *14:46 *674:8 0
13 *165:24 *1573:A2 0
14 *549:8 *674:12 0
15 *653:16 *674:12 6.43316e-05
16 *656:32 *1573:A2 1.45878e-05
*RES
1 *1556:ZN *674:8 11.75 
2 *674:8 *674:12 47.3214 
3 *674:12 *1573:A2 8.75 
*END

*D_NET *675 8.29926e-05
*CONN
*I *1562:A1 I *D NAND4_X1
*I *1557:ZN O *D OR2_X1
*CAP
1 *1562:A1 3.90995e-05
2 *1557:ZN 3.90995e-05
3 *1557:A1 *1562:A1 2.39679e-06
4 *1558:A2 *1562:A1 2.39679e-06
5 *6:87 *1562:A1 0
*RES
1 *1557:ZN *1562:A1 14.2143 
*END

*D_NET *676 0.000126436
*CONN
*I *1562:A2 I *D NAND4_X1
*I *1558:ZN O *D NAND2_X1
*CAP
1 *1562:A2 3.2247e-05
2 *1558:ZN 3.2247e-05
3 *1562:A2 *1562:A3 2.78969e-05
4 *1562:A2 *1572:A1 1.11168e-06
5 *1558:A1 *1562:A2 1.11168e-06
6 *1558:A2 *1562:A2 2.73619e-05
7 *15:28 *1562:A2 4.46014e-06
*RES
1 *1558:ZN *1562:A2 24.3571 
*END

*D_NET *677 0.00845811
*CONN
*I *2313:A1 I *D NAND2_X1
*I *1560:A1 I *D NAND2_X1
*I *1677:A1 I *D NAND2_X1
*I *1694:A1 I *D NAND2_X1
*I *1646:A1 I *D NAND2_X1
*I *1633:A1 I *D NAND2_X1
*I *1610:A1 I *D NAND2_X1
*I *1559:ZN O *D NOR2_X2
*CAP
1 *2313:A1 7.79182e-06
2 *1560:A1 0.000264919
3 *1677:A1 0.000233073
4 *1694:A1 1.45753e-05
5 *1646:A1 0
6 *1633:A1 1.18211e-05
7 *1610:A1 0
8 *1559:ZN 0.000226468
9 *677:73 0.000337418
10 *677:71 0.000406412
11 *677:56 0.000570811
12 *677:39 0.000631274
13 *677:33 0.000718397
14 *677:31 0.000297127
15 *677:29 0.000384493
16 *677:12 0.000347826
17 *677:8 0.000390942
18 *1560:A1 *1562:A4 1.04584e-06
19 *1560:A1 *1571:B2 0
20 *1560:A1 *1572:A1 0
21 *1560:A1 *2314:B2 0
22 *1560:A1 *690:8 0
23 *1694:A1 *1695:A4 2.39679e-06
24 *677:31 *1705:A2 0.000133528
25 *677:31 *813:8 9.43162e-05
26 *677:31 *814:16 2.10217e-05
27 *677:39 *684:35 0.000284496
28 *677:39 *684:52 0.000475388
29 *677:56 *684:52 0.000193419
30 *1519:A1 *677:8 3.65322e-06
31 *1550:A *677:29 2.90671e-06
32 *1550:B2 *677:31 2.27992e-05
33 *1552:A2 *677:31 6.35394e-05
34 *1553:A1 *677:31 6.83269e-05
35 *1557:A1 *1560:A1 0
36 *1558:A2 *1560:A1 7.16188e-07
37 *1559:A1 *677:8 1.32348e-05
38 *1561:A1 *1560:A1 2.26406e-05
39 *1569:A1 *1560:A1 1.32323e-05
40 *1577:B *677:29 1.03644e-05
41 *1592:A *677:31 4.17054e-05
42 *1610:A2 *677:29 1.09235e-05
43 *1646:A2 *677:56 3.02372e-05
44 *1646:A2 *677:71 5.19786e-05
45 *1647:A2 *1633:A1 6.9845e-06
46 *1655:B1 *677:56 0
47 *1677:A2 *1677:A1 6.65423e-06
48 *1694:A2 *1694:A1 1.21774e-06
49 *1704:A *677:31 3.8126e-05
50 *1705:A1 *677:31 1.6613e-05
51 *1720:A *677:71 0
52 *2312:A *677:31 6.75352e-05
53 *2312:B2 *677:31 2.89309e-05
54 *2313:A2 *2313:A1 1.68643e-06
55 *2314:A *2313:A1 2.39679e-06
56 *2314:B1 *677:31 3.0203e-05
57 *2314:B1 *677:33 6.83269e-05
58 *2318:A1 *677:31 0
59 *2318:A1 *677:33 0
60 *2318:A3 *677:33 0
61 *2318:A3 *677:39 0
62 *2320:A2 *677:31 0
63 *2385:A *1677:A1 0
64 *2413:A *677:71 1.40196e-06
65 *2415:B *1677:A1 5.25505e-05
66 *1:8 *677:71 0
67 *1:19 *677:73 0
68 *2:16 *677:73 1.41532e-05
69 *2:29 *1677:A1 1.40669e-05
70 *2:44 *1677:A1 5.32819e-06
71 *6:104 *677:39 9.21556e-06
72 *7:74 *677:8 3.2191e-05
73 *8:33 *677:29 0
74 *162:10 *1677:A1 8.65398e-05
75 *162:10 *677:73 2.18059e-05
76 *165:16 *677:8 6.19568e-06
77 *165:24 *677:8 0
78 *201:8 *677:56 0
79 *222:22 *1694:A1 1.03979e-05
80 *224:10 *1677:A1 0.000102015
81 *226:8 *1677:A1 1.28577e-06
82 *235:8 *677:31 0
83 *238:10 *677:31 0.000126581
84 *549:8 *677:12 7.53452e-05
85 *549:8 *677:29 0
86 *637:77 *677:71 6.16397e-05
87 *640:39 *1560:A1 0.000196588
88 *642:93 *1677:A1 1.36515e-05
89 *644:47 *677:39 2.42637e-05
90 *644:73 *677:56 2.64113e-05
91 *644:92 *1694:A1 4.76326e-06
92 *652:10 *677:8 4.31363e-05
93 *652:48 *1560:A1 0.000127263
94 *652:69 *677:39 6.32677e-05
95 *652:69 *677:56 8.97325e-05
96 *653:16 *677:29 0.000127206
97 *653:41 *677:29 4.39774e-06
98 *672:39 *677:29 0.000118658
99 *674:12 *677:12 7.53452e-05
100 *674:12 *677:29 0.00024882
*RES
1 *1559:ZN *677:8 35.25 
2 *677:8 *677:12 26.2857 
3 *677:12 *1610:A1 5 
4 *677:12 *677:29 44.5 
5 *677:29 *677:31 33.5 
6 *677:31 *677:33 10.4286 
7 *677:33 *677:39 26.97 
8 *677:39 *1633:A1 16.1786 
9 *677:39 *677:56 19.5714 
10 *677:56 *1646:A1 10 
11 *677:56 *677:71 45.2143 
12 *677:71 *677:73 9.75 
13 *677:73 *1694:A1 12.25 
14 *677:73 *1677:A1 41.8214 
15 *677:33 *1560:A1 46.1786 
16 *677:31 *2313:A1 10.75 
*END

*D_NET *678 8.72889e-05
*CONN
*I *1562:A3 I *D NAND4_X1
*I *1560:ZN O *D NAND2_X1
*CAP
1 *1562:A3 1.57476e-05
2 *1560:ZN 1.57476e-05
3 *1562:A3 *1562:A4 2.78969e-05
4 *1562:A2 *1562:A3 2.78969e-05
*RES
1 *1560:ZN *1562:A3 12.75 
*END

*D_NET *679 0.000104671
*CONN
*I *1562:A4 I *D NAND4_X1
*I *1561:ZN O *D NAND2_X1
*CAP
1 *1562:A4 3.54827e-05
2 *1561:ZN 3.54827e-05
3 *1560:A1 *1562:A4 1.04584e-06
4 *1562:A3 *1562:A4 2.78969e-05
5 *6:87 *1562:A4 4.76331e-06
*RES
1 *1561:ZN *1562:A4 14.3571 
*END

*D_NET *680 0.000409307
*CONN
*I *1572:A1 I *D NOR3_X1
*I *1562:ZN O *D NAND4_X1
*CAP
1 *1572:A1 0.00014808
2 *1562:ZN 0.00014808
3 *1572:A1 *1571:B2 7.16188e-07
4 *1557:A1 *1572:A1 8.02183e-05
5 *1558:A1 *1572:A1 1.1144e-06
6 *1560:A1 *1572:A1 0
7 *1562:A2 *1572:A1 1.11168e-06
8 *15:28 *1572:A1 2.99872e-05
9 *216:8 *1572:A1 0
*RES
1 *1562:ZN *1572:A1 36.4643 
*END

*D_NET *681 0.000119551
*CONN
*I *1568:A1 I *D NAND4_X1
*I *1563:ZN O *D OR2_X1
*CAP
1 *1568:A1 4.49223e-05
2 *1563:ZN 4.49223e-05
3 *1568:A1 *1568:A2 8.43215e-07
4 *1568:A1 *1568:A3 1.57484e-05
5 *1569:A2 *1568:A1 1.16067e-05
6 *6:104 *1568:A1 0
7 *15:22 *1568:A1 1.50869e-06
*RES
1 *1563:ZN *1568:A1 25.6429 
*END

*D_NET *682 0.000130978
*CONN
*I *1568:A2 I *D NAND4_X1
*I *1564:ZN O *D NAND2_X1
*CAP
1 *1568:A2 4.26609e-05
2 *1564:ZN 4.26609e-05
3 *1568:A2 *1568:A4 1.69163e-05
4 *1568:A1 *1568:A2 8.43215e-07
5 *6:104 *1568:A2 0
6 *637:32 *1568:A2 2.78969e-05
*RES
1 *1564:ZN *1568:A2 15.6071 
*END

*D_NET *683 0.000484234
*CONN
*I *1568:A3 I *D NAND4_X1
*I *1565:ZN O *D NAND2_X1
*CAP
1 *1568:A3 0.000168783
2 *1565:ZN 0.000168783
3 *1568:A3 *1571:A 3.24354e-05
4 *1568:A3 *1572:A2 2.1335e-05
5 *1568:A1 *1568:A3 1.57484e-05
6 *1569:A2 *1568:A3 1.42931e-06
7 *6:104 *1568:A3 0
8 *7:38 *1568:A3 9.66611e-07
9 *15:22 *1568:A3 1.85755e-05
10 *216:12 *1568:A3 8.35182e-06
11 *216:29 *1568:A3 4.0456e-06
12 *642:40 *1568:A3 9.66611e-07
13 *652:37 *1568:A3 4.28143e-05
*RES
1 *1565:ZN *1568:A3 42.5 
*END

*D_NET *684 0.0105216
*CONN
*I *1719:A1 I *D NAND2_X1
*I *1567:A1 I *D NAND2_X1
*I *1687:A1 I *D NAND2_X1
*I *1679:A1 I *D NAND2_X1
*I *1652:A1 I *D NAND2_X1
*I *1629:A1 I *D NAND2_X1
*I *1615:A1 I *D NAND2_X1
*I *1566:ZN O *D NOR2_X2
*CAP
1 *1719:A1 5.09456e-06
2 *1567:A1 1.44254e-05
3 *1687:A1 0.000105273
4 *1679:A1 0.000163451
5 *1652:A1 0
6 *1629:A1 0
7 *1615:A1 5.55891e-05
8 *1566:ZN 1.5551e-05
9 *684:110 0.0010164
10 *684:65 0.000530267
11 *684:63 0.00041094
12 *684:52 0.000436717
13 *684:35 0.000548551
14 *684:27 0.00106702
15 *684:25 0.00199209
16 *684:8 0.000260562
17 *1615:A1 *1616:A 2.86475e-06
18 *1679:A1 *1598:B2 4.17678e-05
19 *1679:A1 *714:10 7.36279e-06
20 *1687:A1 *1598:B2 1.15624e-05
21 *1687:A1 *1689:A 1.73976e-05
22 *1687:A1 *1689:B2 7.94852e-06
23 *684:65 *1598:A 3.5108e-06
24 *684:65 *1598:B2 7.19036e-06
25 *1545:A2 *1679:A1 7.9103e-06
26 *1595:B2 *1679:A1 5.94167e-07
27 *1598:B1 *1679:A1 4.19164e-05
28 *1651:A2 *684:65 3.09411e-06
29 *1681:B2 *1679:A1 7.19036e-06
30 *1693:A1 *1687:A1 0
31 *1693:A1 *684:65 0
32 *1946:A *684:65 0
33 *2307:A *684:27 0
34 *2416:B *1679:A1 0.000105291
35 *2419:A *1687:A1 1.97303e-05
36 *2419:B *1687:A1 1.65458e-05
37 *2421:A *1719:A1 1.9153e-05
38 *2421:B *1719:A1 6.89701e-06
39 *3:30 *1687:A1 8.43215e-07
40 *3:38 *1687:A1 1.68643e-06
41 *3:42 *1679:A1 7.19036e-06
42 *4:46 *684:52 1.79861e-05
43 *4:46 *684:63 0.000439905
44 *6:52 *1615:A1 1.26998e-05
45 *7:66 *1615:A1 8.43215e-07
46 *7:72 *1615:A1 5.36241e-05
47 *7:72 *684:8 1.1613e-05
48 *8:33 *1567:A1 0
49 *8:33 *684:27 0
50 *16:19 *684:52 0
51 *164:14 *1687:A1 1.26998e-05
52 *164:25 *1679:A1 0
53 *224:31 *1679:A1 0.000181005
54 *549:8 *684:27 0
55 *602:16 *684:25 0.000444803
56 *602:16 *684:110 0.00100802
57 *634:26 *684:27 0.000167083
58 *640:16 *684:27 0
59 *642:8 *1615:A1 7.97612e-07
60 *642:8 *684:8 1.19642e-05
61 *642:12 *1615:A1 5.09324e-05
62 *643:35 *684:25 6.62523e-05
63 *643:35 *684:110 3.78865e-05
64 *644:73 *684:52 9.05646e-05
65 *648:80 *684:65 0
66 *652:88 *1687:A1 0
67 *677:39 *684:35 0.000284496
68 *677:39 *684:52 0.000475388
69 *677:56 *684:52 0.000193419
*RES
1 *1566:ZN *684:8 12.1429 
2 *684:8 *1615:A1 19.1071 
3 *684:8 *684:25 20.29 
4 *684:25 *684:27 83.25 
5 *684:27 *684:35 21.71 
6 *684:35 *1629:A1 10 
7 *684:35 *684:52 27.6557 
8 *684:52 *1652:A1 10 
9 *684:52 *684:63 28.3214 
10 *684:63 *684:65 25.25 
11 *684:65 *1679:A1 37.0357 
12 *684:65 *1687:A1 27.2857 
13 *684:27 *1567:A1 11.6071 
14 *684:25 *684:110 47.36 
15 *684:110 *1719:A1 16.0357 
*END

*D_NET *685 0.000353315
*CONN
*I *1568:A4 I *D NAND4_X1
*I *1567:ZN O *D NAND2_X1
*CAP
1 *1568:A4 0.000140385
2 *1567:ZN 0.000140385
3 *1563:A1 *1568:A4 2.08416e-06
4 *1564:A1 *1568:A4 1.32348e-05
5 *1567:A2 *1568:A4 6.90234e-07
6 *1568:A2 *1568:A4 1.69163e-05
7 *2411:A *1568:A4 0
8 *7:12 *1568:A4 0
9 *637:32 *1568:A4 3.96208e-05
*RES
1 *1567:ZN *1568:A4 26.7857 
*END

*D_NET *686 0.000249276
*CONN
*I *1572:A2 I *D NOR3_X1
*I *1568:ZN O *D NAND4_X1
*CAP
1 *1572:A2 4.97285e-05
2 *1568:ZN 4.97285e-05
3 *1572:A2 *1571:A 2.45536e-05
4 *1572:A2 *1572:A3 1.57497e-05
5 *1568:A3 *1572:A2 2.1335e-05
6 *1569:A2 *1572:A2 8.11741e-05
7 *637:16 *1572:A2 1.90574e-06
8 *637:32 *1572:A2 5.10087e-06
*RES
1 *1568:ZN *1572:A2 28.7857 
*END

*D_NET *687 0.000209984
*CONN
*I *1571:A I *D OAI21_X1
*I *1569:ZN O *D NAND2_X1
*CAP
1 *1571:A 5.39401e-05
2 *1569:ZN 5.39401e-05
3 *1571:A *1572:A3 2.0188e-05
4 *1568:A3 *1571:A 3.24354e-05
5 *1572:A2 *1571:A 2.45536e-05
6 *7:38 *1571:A 4.9678e-06
7 *216:8 *1571:A 1.26998e-05
8 *216:12 *1571:A 5.64879e-06
9 *637:16 *1571:A 1.61002e-06
*RES
1 *1569:ZN *1571:A 28.9643 
*END

*D_NET *688 0.00513317
*CONN
*I *1716:A1 I *D OAI22_X1
*I *1674:A1 I *D OAI22_X1
*I *2314:B2 I *D OAI21_X1
*I *1571:B2 I *D OAI21_X1
*I *1570:ZN O *D INV_X1
*CAP
1 *1716:A1 0.000110445
2 *1674:A1 6.01726e-06
3 *2314:B2 0.000215789
4 *1571:B2 5.77126e-05
5 *1570:ZN 0
6 *688:34 0.000116462
7 *688:32 0.00147261
8 *688:30 0.00155315
9 *688:10 0.000389989
10 *688:6 0.000197027
11 *1674:A1 *1675:A 5.47224e-06
12 *1716:A1 *1675:A 2.52678e-05
13 *1716:A1 *1678:A1 2.3788e-06
14 *1716:A1 *1678:A2 6.89712e-05
15 *1716:A1 *1717:A 1.72063e-05
16 *688:10 *690:10 2.03061e-05
17 *688:30 *690:10 1.21411e-05
18 *688:32 *814:16 0.000178244
19 *1560:A1 *1571:B2 0
20 *1560:A1 *2314:B2 0
21 *1569:A1 *1571:B2 0
22 *1572:A1 *1571:B2 7.16188e-07
23 *1712:A2 *1716:A1 6.03486e-06
24 *1716:B1 *1674:A1 1.97714e-05
25 *1716:B1 *1716:A1 7.19103e-05
26 *2313:A2 *2314:B2 3.1962e-06
27 *2314:A *2314:B2 7.16188e-07
28 *2318:A2 *2314:B2 1.5896e-05
29 *7:34 *688:10 6.86795e-05
30 *7:38 *1571:B2 0
31 *216:8 *1571:B2 1.21774e-06
32 *629:14 *688:10 0.000248778
33 *629:14 *688:30 0.00023669
34 *640:24 *688:10 1.0369e-05
35 *640:39 *2314:B2 0
*RES
1 *1570:ZN *688:6 10 
2 *688:6 *688:10 24.25 
3 *688:10 *1571:B2 10.25 
4 *688:10 *2314:B2 26.6786 
5 *688:6 *688:30 17.6429 
6 *688:30 *688:32 52.71 
7 *688:32 *688:34 5 
8 *688:34 *1674:A1 11.1071 
9 *688:34 *1716:A1 26.5 
*END

*D_NET *689 0.000213395
*CONN
*I *1572:A3 I *D NOR3_X1
*I *1571:ZN O *D OAI21_X1
*CAP
1 *1572:A3 3.08905e-05
2 *1571:ZN 3.08905e-05
3 *1569:A1 *1572:A3 8.26038e-06
4 *1571:A *1572:A3 2.0188e-05
5 *1572:A2 *1572:A3 1.57497e-05
6 *637:16 *1572:A3 0.000107416
*RES
1 *1571:ZN *1572:A3 26.4286 
*END

*D_NET *690 0.00341976
*CONN
*I *1573:A3 I *D NAND3_X2
*I *1572:ZN O *D NOR3_X1
*CAP
1 *1573:A3 0.000199879
2 *1572:ZN 1.4753e-05
3 *690:10 0.000774118
4 *690:8 0.000588992
5 *1573:A3 *1618:A1 3.94703e-05
6 *1573:A3 *1298:8 8.26038e-06
7 *690:10 *1604:A3 9.22959e-05
8 *690:10 *733:14 0.000118445
9 *1527:A2 *690:10 0.00020617
10 *1537:A1 *690:10 3.48474e-05
11 *1538:A1 *690:10 1.06841e-06
12 *1538:A2 *1573:A3 2.66511e-05
13 *1552:A1 *690:10 2.04312e-06
14 *1560:A1 *690:8 0
15 *1573:A2 *1573:A3 4.29718e-06
16 *1608:A2 *690:10 1.30978e-05
17 *7:34 *690:10 0
18 *165:24 *1573:A3 5.02815e-05
19 *629:10 *690:10 0
20 *629:14 *690:10 0
21 *644:22 *690:10 0.00117121
22 *648:24 *690:10 1.43915e-05
23 *648:30 *690:10 2.11045e-05
24 *653:8 *690:10 5.9384e-06
25 *656:8 *1573:A3 0
26 *656:15 *1573:A3 0
27 *656:32 *1573:A3 0
28 *688:10 *690:10 2.03061e-05
29 *688:30 *690:10 1.21411e-05
*RES
1 *1572:ZN *690:8 11.25 
2 *690:8 *690:10 91.1786 
3 *690:10 *1573:A3 34.1786 
*END

*D_NET *692 0.000775683
*CONN
*I *2382:A I *D XNOR2_X1
*I *1576:A1 I *D NOR3_X1
*I *1575:ZN O *D NAND3_X1
*CAP
1 *2382:A 0
2 *1576:A1 0.000149928
3 *1575:ZN 0.00019765
4 *692:8 0.000347578
5 *1576:A1 *833:28 0
6 *692:8 *833:22 2.77855e-05
7 *692:8 *833:28 0
8 *1492:B2 *1576:A1 0
9 *1575:A2 *692:8 1.36133e-06
10 *1575:A3 *692:8 3.88456e-06
11 *2382:B *1576:A1 1.25189e-05
12 *2383:B1 *1576:A1 9.62051e-07
13 *2383:B1 *692:8 1.91498e-06
14 *13:44 *1576:A1 2.55787e-06
15 *191:39 *1576:A1 2.95424e-05
16 *603:64 *692:8 0
*RES
1 *1575:ZN *692:8 26.2143 
2 *692:8 *1576:A1 21.25 
3 *692:8 *2382:A 5 
*END

*D_NET *693 0.000105703
*CONN
*I *1577:A I *D XNOR2_X1
*I *1576:ZN O *D NOR3_X1
*CAP
1 *1577:A 4.74324e-05
2 *1576:ZN 4.74324e-05
3 *1492:B2 *1577:A 1.08378e-05
4 *14:46 *1577:A 0
*RES
1 *1576:ZN *1577:A 15.0357 
*END

*D_NET *694 0.000193196
*CONN
*I *1578:B1 I *D AOI21_X1
*I *1577:ZN O *D XNOR2_X1
*CAP
1 *1578:B1 3.76864e-05
2 *1577:ZN 3.76864e-05
3 *1578:B1 *833:28 2.35328e-05
4 *1492:A *1578:B1 2.94435e-05
5 *1492:B2 *1578:B1 7.72792e-06
6 *1577:B *1578:B1 3.65322e-06
7 *1578:A *1578:B1 7.72537e-06
8 *603:10 *1578:B1 7.72537e-06
9 *603:14 *1578:B1 2.94455e-05
10 *630:22 *1578:B1 8.56923e-06
*RES
1 *1577:ZN *1578:B1 25.9643 
*END

*D_NET *695 6.8135e-05
*CONN
*I *1580:A I *D INV_X1
*I *1579:ZN O *D NAND2_X1
*CAP
1 *1580:A 2.68752e-05
2 *1579:ZN 2.68752e-05
3 *1580:A *705:14 7.19234e-06
4 *165:24 *1580:A 7.19234e-06
*RES
1 *1579:ZN *1580:A 13.25 
*END

*D_NET *696 0.000297598
*CONN
*I *1588:A I *D OAI21_X1
*I *1582:A1 I *D NAND4_X1
*I *1580:ZN O *D INV_X1
*CAP
1 *1588:A 4.58133e-05
2 *1582:A1 0
3 *1580:ZN 4.47733e-05
4 *696:8 9.05867e-05
5 *1588:A *1587:A 7.19036e-06
6 *1588:A *1588:B1 1.13201e-05
7 *1588:A *1589:A1 3.01743e-06
8 *1588:A *1664:A 1.39839e-06
9 *1497:A1 *1588:A 1.87369e-06
10 *1497:A1 *696:8 0
11 *1582:A2 *1588:A 1.21774e-06
12 *1586:A2 *696:8 0
13 *165:24 *1588:A 0
14 *165:24 *696:8 6.06867e-06
15 *185:10 *1588:A 5.48932e-05
16 *186:23 *1588:A 2.94455e-05
*RES
1 *1580:ZN *696:8 9.67857 
2 *696:8 *1582:A1 5 
3 *696:8 *1588:A 21.5 
*END

*D_NET *697 0.000709849
*CONN
*I *1662:B1 I *D AOI21_X1
*I *1582:A4 I *D NAND4_X1
*I *1581:ZN O *D INV_X1
*CAP
1 *1662:B1 0
2 *1582:A4 8.94155e-05
3 *1581:ZN 0.000116584
4 *697:20 0.000205999
5 *1582:A4 *1663:B1 1.32323e-05
6 *697:20 *1663:B1 1.34875e-05
7 *697:20 *735:39 7.96507e-06
8 *697:20 *735:52 3.77811e-05
9 *1479:A *697:20 7.34989e-06
10 *1582:A2 *1582:A4 5.10904e-05
11 *1582:A3 *1582:A4 7.72537e-06
12 *1586:A2 *1582:A4 4.95679e-05
13 *1586:A2 *697:20 2.39679e-06
14 *165:24 *1582:A4 4.38826e-05
15 *177:14 *697:20 2.43548e-06
16 *186:23 *1582:A4 0
17 *240:10 *697:20 6.09359e-05
*RES
1 *1581:ZN *697:20 31.1786 
2 *697:20 *1582:A4 27.2857 
3 *697:20 *1662:B1 5 
*END

*D_NET *698 0.000261663
*CONN
*I *1589:A1 I *D NAND3_X1
*I *1582:ZN O *D NAND4_X1
*CAP
1 *1589:A1 9.12057e-05
2 *1582:ZN 9.12057e-05
3 *1589:A1 *1588:B1 2.13227e-05
4 *1589:A1 *1589:A2 3.08158e-06
5 *1589:A1 *1589:A3 1.57087e-05
6 *1589:A1 *1664:A 1.69265e-05
7 *1589:A1 *705:14 4.17091e-06
8 *1497:A1 *1589:A1 8.86827e-07
9 *1588:A *1589:A1 3.01743e-06
10 *185:10 *1589:A1 1.41373e-05
*RES
1 *1582:ZN *1589:A1 32.0357 
*END

*D_NET *699 7.58155e-05
*CONN
*I *1584:A I *D OAI21_X1
*I *1583:ZN O *D INV_X1
*CAP
1 *1584:A 3.25409e-05
2 *1583:ZN 3.25409e-05
3 *1584:A *1639:A 2.89521e-06
4 *1584:A *705:14 0
5 *1584:A *735:35 0
6 *1584:B2 *1584:A 6.48216e-07
7 *1638:A3 *1584:A 7.19036e-06
8 *617:10 *1584:A 0
*RES
1 *1583:ZN *1584:A 13.25 
*END

*D_NET *700 0.000116133
*CONN
*I *1585:A I *D INV_X1
*I *1584:ZN O *D OAI21_X1
*CAP
1 *1585:A 5.27333e-05
2 *1584:ZN 5.27333e-05
3 *1585:A *1664:A 3.09143e-06
4 *1585:A *705:14 0
5 *1585:A *735:35 3.03275e-06
6 *1497:A1 *1585:A 2.39679e-06
7 *1499:B1 *1585:A 0
8 *1638:A1 *1585:A 2.14504e-06
*RES
1 *1584:ZN *1585:A 15.8571 
*END

*D_NET *701 0.000126289
*CONN
*I *1589:A2 I *D NAND3_X1
*I *1585:ZN O *D INV_X1
*CAP
1 *1589:A2 3.84315e-05
2 *1585:ZN 3.84315e-05
3 *1589:A2 *1664:A 3.35796e-05
4 *1589:A2 *705:14 1.88334e-06
5 *1497:A1 *1589:A2 1.08812e-05
6 *1589:A1 *1589:A2 3.08158e-06
7 *1664:B *1589:A2 0
*RES
1 *1585:ZN *1589:A2 24.8571 
*END

*D_NET *702 8.89335e-05
*CONN
*I *1587:A I *D INV_X1
*I *1586:ZN O *D NAND2_X1
*CAP
1 *1587:A 2.71317e-05
2 *1586:ZN 2.71317e-05
3 *1494:A *1587:A 8.64288e-07
4 *1582:A2 *1587:A 4.04712e-06
5 *1588:A *1587:A 7.19036e-06
6 *186:23 *1587:A 2.25683e-05
*RES
1 *1586:ZN *1587:A 13.25 
*END

*D_NET *703 0.000110608
*CONN
*I *1588:B1 I *D OAI21_X1
*I *1587:ZN O *D INV_X1
*CAP
1 *1588:B1 1.95681e-05
2 *1587:ZN 1.95681e-05
3 *1588:B1 *1664:A 3.23723e-07
4 *1497:A1 *1588:B1 7.72792e-06
5 *1588:A *1588:B1 1.13201e-05
6 *1589:A1 *1588:B1 2.13227e-05
7 *185:10 *1588:B1 3.07768e-05
*RES
1 *1587:ZN *1588:B1 23.7143 
*END

*D_NET *704 0.000101372
*CONN
*I *1589:A3 I *D NAND3_X1
*I *1588:ZN O *D OAI21_X1
*CAP
1 *1589:A3 2.33761e-05
2 *1588:ZN 2.33761e-05
3 *1497:A1 *1589:A3 3.89107e-05
4 *1589:A1 *1589:A3 1.57087e-05
*RES
1 *1588:ZN *1589:A3 13.75 
*END

*D_NET *705 0.00206128
*CONN
*I *2290:A1 I *D NAND2_X1
*I *1590:A I *D XOR2_X1
*I *1589:ZN O *D NAND3_X1
*CAP
1 *2290:A1 7.98272e-05
2 *1590:A 5.59109e-05
3 *1589:ZN 0.000272104
4 *705:16 0.000311576
5 *705:14 0.000447942
6 *1497:A1 *705:14 4.78746e-06
7 *1499:B1 *705:14 3.90891e-05
8 *1499:B2 *705:14 7.19036e-06
9 *1500:B2 *705:14 0
10 *1500:B2 *705:16 0
11 *1573:A1 *1590:A 3.89107e-05
12 *1573:A1 *705:16 4.59253e-05
13 *1579:A2 *705:14 0
14 *1580:A *705:14 7.19234e-06
15 *1583:A *705:14 0
16 *1584:A *705:14 0
17 *1584:B2 *705:14 4.32144e-07
18 *1585:A *705:14 0
19 *1589:A1 *705:14 4.17091e-06
20 *1589:A2 *705:14 1.88334e-06
21 *2289:A *2290:A1 5.11191e-06
22 *2292:A *2290:A1 0.000197589
23 *165:24 *705:14 0
24 *165:24 *705:16 0
25 *183:12 *705:14 5.47949e-06
26 *514:12 *1590:A 3.65659e-06
27 *514:12 *2290:A1 0.000286517
28 *515:8 *1590:A 1.5249e-05
29 *617:10 *705:14 3.34038e-05
30 *656:32 *1590:A 6.12771e-06
31 *656:32 *705:16 2.09117e-05
32 *656:47 *705:16 0.000170294
*RES
1 *1589:ZN *705:14 44.5 
2 *705:14 *705:16 23.25 
3 *705:16 *1590:A 22.3929 
4 *705:16 *2290:A1 32.4286 
*END

*D_NET *706 0.000316912
*CONN
*I *1591:A1 I *D NAND2_X1
*I *1590:Z O *D XOR2_X1
*CAP
1 *1591:A1 0.000146885
2 *1590:Z 0.000146885
3 *656:8 *1591:A1 1.21774e-06
4 *656:15 *1591:A1 8.17762e-06
5 *656:32 *1591:A1 1.37468e-05
*RES
1 *1590:Z *1591:A1 25.1071 
*END

*D_NET *707 0.000411192
*CONN
*I *1618:A1 I *D NAND3_X4
*I *1591:ZN O *D NAND2_X1
*CAP
1 *1618:A1 0.000132681
2 *1591:ZN 0.000132681
3 *1618:A1 *720:12 2.75346e-06
4 *1618:A1 *733:14 7.72537e-06
5 *1537:A1 *1618:A1 6.19568e-06
6 *1538:A1 *1618:A1 1.87418e-05
7 *1538:A2 *1618:A1 5.40074e-05
8 *1573:A3 *1618:A1 3.94703e-05
9 *549:8 *1618:A1 0
10 *656:8 *1618:A1 1.6935e-05
*RES
1 *1591:ZN *1618:A1 37.2143 
*END

*D_NET *708 0.000440067
*CONN
*I *1594:A I *D OAI21_X1
*I *1592:ZN O *D INV_X1
*CAP
1 *1594:A 0.000128442
2 *1592:ZN 0.000128442
3 *1594:A *1594:B1 8.43215e-07
4 *1594:A *709:14 0
5 *1594:A *710:16 6.07323e-06
6 *1594:A *715:8 0
7 *1549:A1 *1594:A 8.36514e-06
8 *1549:A2 *1594:A 4.9387e-05
9 *1705:A1 *1594:A 1.73151e-05
10 *1705:A3 *1594:A 4.26239e-05
11 *8:33 *1594:A 0
12 *648:60 *1594:A 1.0499e-05
13 *672:39 *1594:A 4.80763e-05
*RES
1 *1592:ZN *1594:A 34.9286 
*END

*D_NET *709 0.00110868
*CONN
*I *1594:B1 I *D OAI21_X1
*I *1593:ZN O *D INV_X1
*CAP
1 *1594:B1 3.96008e-05
2 *1593:ZN 0.00033801
3 *709:14 0.000377611
4 *709:14 *792:16 0.000124161
5 *709:14 *792:36 1.3688e-06
6 *1594:A *1594:B1 8.43215e-07
7 *1594:A *709:14 0
8 *1599:A2 *709:14 0
9 *1621:A1 *709:14 4.99246e-05
10 *1621:A2 *709:14 7.72792e-06
11 *1680:A *709:14 3.05398e-06
12 *2397:B *1594:B1 0
13 *2397:B *709:14 2.81475e-05
14 *193:21 *1594:B1 2.07669e-05
15 *193:21 *709:14 3.19164e-07
16 *193:45 *709:14 3.83974e-05
17 *630:14 *709:14 0
18 *630:42 *709:14 0
19 *634:51 *1594:B1 0
20 *634:55 *709:14 1.84256e-05
21 *648:78 *709:14 6.03249e-05
*RES
1 *1593:ZN *709:14 47.9643 
2 *709:14 *1594:B1 9.75 
*END

*D_NET *710 0.000977047
*CONN
*I *1600:A I *D AOI21_X1
*I *2301:A1 I *D NAND2_X1
*I *1594:ZN O *D OAI21_X1
*CAP
1 *1600:A 0
2 *2301:A1 5.04066e-05
3 *1594:ZN 0.000258711
4 *710:16 0.000309117
5 *2301:A1 *1600:B1 2.39679e-06
6 *2301:A1 *2305:A1 0
7 *710:16 *1600:B1 6.48694e-05
8 *710:16 *715:8 2.70225e-05
9 *710:16 *715:10 0.000101632
10 *1549:A1 *710:16 2.29258e-05
11 *1594:A *710:16 6.07323e-06
12 *1705:A3 *710:16 2.77007e-05
13 *2300:A2 *2301:A1 1.86156e-05
14 *2300:A2 *710:16 8.43215e-07
15 *529:12 *2301:A1 2.39679e-06
16 *629:14 *710:16 4.24381e-05
17 *640:24 *710:16 4.18985e-05
*RES
1 *1594:ZN *710:16 47.7143 
2 *710:16 *2301:A1 10.6786 
3 *710:16 *1600:A 5 
*END

*D_NET *711 0.000115966
*CONN
*I *1598:A I *D OAI21_X1
*I *1595:ZN O *D AOI21_X1
*CAP
1 *1598:A 3.06777e-05
2 *1595:ZN 3.06777e-05
3 *1598:A *1598:B2 2.16072e-07
4 *1598:A *714:10 4.2132e-05
5 *1595:B2 *1598:A 2.75346e-06
6 *1693:A1 *1598:A 5.99828e-06
7 *684:65 *1598:A 3.5108e-06
*RES
1 *1595:ZN *1598:A 24.0357 
*END

*D_NET *712 0.000536728
*CONN
*I *1696:A2 I *D OAI22_X1
*I *1693:A2 I *D NAND2_X1
*I *1597:A2 I *D NAND2_X1
*I *1596:ZN O *D INV_X1
*CAP
1 *1696:A2 6.28507e-05
2 *1693:A2 0
3 *1597:A2 4.95417e-05
4 *1596:ZN 0
5 *712:12 8.93235e-05
6 *712:4 0.000102633
7 *1696:A2 *803:22 4.33476e-05
8 *1689:B1 *1597:A2 2.39679e-06
9 *1689:B1 *1696:A2 1.86809e-06
10 *1689:B1 *712:12 2.30029e-05
11 *1693:A1 *1597:A2 1.12762e-05
12 *1696:A1 *1696:A2 7.19036e-06
13 *1696:B1 *1696:A2 6.85774e-07
14 *2419:A *1696:A2 0
15 *9:28 *712:12 1.77411e-05
16 *155:27 *1696:A2 2.51631e-06
17 *164:14 *1597:A2 3.54976e-05
18 *164:14 *712:12 2.11411e-05
19 *229:12 *1696:A2 3.16205e-05
20 *230:12 *1696:A2 2.75402e-05
21 *230:12 *712:12 4.02502e-06
22 *662:16 *1696:A2 2.52965e-06
*RES
1 *1596:ZN *712:4 5 
2 *712:4 *712:12 15.2143 
3 *712:12 *1597:A2 10.9286 
4 *712:12 *1693:A2 5 
5 *712:4 *1696:A2 13.25 
*END

*D_NET *713 0.000189407
*CONN
*I *1598:B2 I *D OAI21_X1
*I *1597:ZN O *D NAND2_X1
*CAP
1 *1598:B2 4.90333e-05
2 *1597:ZN 4.90333e-05
3 *1595:B2 *1598:B2 3.06036e-05
4 *1598:A *1598:B2 2.16072e-07
5 *1679:A1 *1598:B2 4.17678e-05
6 *1687:A1 *1598:B2 1.15624e-05
7 *164:25 *1598:B2 0
8 *684:65 *1598:B2 7.19036e-06
*RES
1 *1597:ZN *1598:B2 26.2857 
*END

*D_NET *714 0.00293217
*CONN
*I *1600:B1 I *D AOI21_X1
*I *1658:A I *D INV_X1
*I *1598:ZN O *D OAI21_X1
*CAP
1 *1600:B1 0.000107199
2 *1658:A 4.23815e-05
3 *1598:ZN 3.9248e-05
4 *714:12 0.00124079
5 *714:10 0.00113045
6 *1600:B1 *715:10 9.32979e-06
7 *714:12 *814:16 0
8 *1545:A2 *714:10 2.94053e-05
9 *1549:A1 *1600:B1 9.70781e-07
10 *1570:A *1600:B1 0.000116962
11 *1570:A *1658:A 3.09411e-06
12 *1598:A *714:10 4.2132e-05
13 *1598:B1 *714:10 6.2988e-06
14 *1679:A1 *714:10 7.36279e-06
15 *2301:A1 *1600:B1 2.39679e-06
16 *2307:A *1600:B1 1.25288e-05
17 *535:6 *1658:A 2.52965e-06
18 *629:14 *1658:A 1.79265e-05
19 *640:24 *1658:A 1.72455e-05
20 *647:93 *714:12 3.90453e-05
21 *710:16 *1600:B1 6.48694e-05
*RES
1 *1598:ZN *714:10 20.0357 
2 *714:10 *714:12 38.64 
3 *714:12 *1658:A 17.5543 
4 *714:12 *1600:B1 29.0714 
*END

*D_NET *715 0.0011992
*CONN
*I *1600:B2 I *D AOI21_X1
*I *2305:A1 I *D NAND2_X1
*I *1599:ZN O *D NOR2_X1
*CAP
1 *1600:B2 8.71307e-06
2 *2305:A1 5.30921e-05
3 *1599:ZN 0.000283714
4 *715:10 0.000203565
5 *715:8 0.000425473
6 *715:8 *772:14 0
7 *715:8 *813:16 0
8 *715:10 *2306:B1 0
9 *715:10 *813:16 0
10 *1594:A *715:8 0
11 *1600:B1 *715:10 9.32979e-06
12 *1947:A *715:8 5.41857e-05
13 *2301:A1 *2305:A1 0
14 *2306:A *2305:A1 9.74263e-06
15 *2307:B1 *715:10 0
16 *2308:A *715:10 0
17 *193:21 *715:8 2.27289e-05
18 *535:6 *715:10 0
19 *710:16 *715:8 2.70225e-05
20 *710:16 *715:10 0.000101632
*RES
1 *1599:ZN *715:8 35.75 
2 *715:8 *715:10 15.8571 
3 *715:10 *2305:A1 10.6786 
4 *715:10 *1600:B2 5.92857 
*END

*D_NET *716 0.000369418
*CONN
*I *1601:A1 I *D OR2_X1
*I *1603:A1 I *D NAND2_X1
*I *1600:ZN O *D AOI21_X1
*CAP
1 *1601:A1 8.71307e-06
2 *1603:A1 0
3 *1600:ZN 0.000120345
4 *716:16 0.000129058
5 *1550:A *716:16 0
6 *210:8 *716:16 2.52965e-06
7 *210:12 *716:16 1.63202e-05
8 *210:16 *716:16 8.1038e-05
9 *216:29 *716:16 1.1413e-05
10 *529:12 *716:16 0
11 *652:37 *716:16 0
*RES
1 *1600:ZN *716:16 31.25 
2 *716:16 *1603:A1 5 
3 *716:16 *1601:A1 5.92857 
*END

*D_NET *717 8.08489e-05
*CONN
*I *1604:A1 I *D NAND3_X1
*I *1601:ZN O *D OR2_X1
*CAP
1 *1604:A1 3.90477e-05
2 *1601:ZN 3.90477e-05
3 *1604:A2 *1604:A1 2.75346e-06
4 *1608:A2 *1604:A1 0
5 *1612:A2 *1604:A1 0
6 *210:51 *1604:A1 0
7 *507:12 *1604:A1 0
*RES
1 *1601:ZN *1604:A1 14.2143 
*END

*D_NET *719 0.000274018
*CONN
*I *1604:A3 I *D NAND3_X1
*I *1603:ZN O *D NAND2_X1
*CAP
1 *1604:A3 6.2508e-05
2 *1603:ZN 6.2508e-05
3 *1550:A *1604:A3 0
4 *1552:A1 *1604:A3 1.81478e-05
5 *1604:A2 *1604:A3 1.28415e-05
6 *210:51 *1604:A3 2.57172e-05
7 *690:10 *1604:A3 9.22959e-05
*RES
1 *1603:ZN *1604:A3 28.5 
*END

*D_NET *720 0.00104132
*CONN
*I *1618:A2 I *D NAND3_X4
*I *1604:ZN O *D NAND3_X1
*CAP
1 *1618:A2 0
2 *1604:ZN 0
3 *720:12 0.000396167
4 *720:6 0.000396167
5 *720:12 *1617:A1 4.42732e-05
6 *720:12 *733:14 1.02017e-05
7 *1519:A1 *720:12 8.14241e-05
8 *1522:A2 *720:12 0
9 *1537:A1 *720:12 3.09411e-06
10 *1538:A2 *720:12 1.87637e-06
11 *1618:A1 *720:12 2.75346e-06
12 *165:10 *720:12 0
13 *165:16 *720:12 0
14 *637:8 *720:12 3.50332e-05
15 *637:10 *720:12 4.0242e-05
16 *637:14 *720:12 3.00916e-05
17 *639:8 *720:12 0
18 *652:37 *720:12 0
*RES
1 *1604:ZN *720:6 10 
2 *720:6 *720:12 49.4286 
3 *720:12 *1618:A2 5 
*END

*D_NET *721 0.000238353
*CONN
*I *1609:A1 I *D NAND4_X1
*I *1605:ZN O *D OR2_X1
*CAP
1 *1609:A1 5.91401e-05
2 *1605:ZN 5.91401e-05
3 *1609:A1 *1609:A3 7.65033e-06
4 *1605:A1 *1609:A1 6.06253e-07
5 *1607:A1 *1609:A1 7.16188e-07
6 *7:66 *1609:A1 8.06346e-05
7 *14:35 *1609:A1 2.75788e-05
8 *212:8 *1609:A1 2.88615e-06
9 *642:12 *1609:A1 0
*RES
1 *1605:ZN *1609:A1 27.8214 
*END

*D_NET *722 0.000236518
*CONN
*I *1609:A2 I *D NAND4_X1
*I *1606:ZN O *D NAND2_X1
*CAP
1 *1609:A2 7.90519e-05
2 *1606:ZN 7.90519e-05
3 *1609:A2 *1609:A4 0
4 *1605:A1 *1609:A2 0
5 *1605:A2 *1609:A2 6.06867e-06
6 *14:35 *1609:A2 3.32596e-05
7 *647:29 *1609:A2 3.90865e-05
*RES
1 *1606:ZN *1609:A2 19.6071 
*END

*D_NET *723 9.14267e-05
*CONN
*I *1609:A3 I *D NAND4_X1
*I *1607:ZN O *D NAND2_X1
*CAP
1 *1609:A3 2.72605e-05
2 *1607:ZN 2.72605e-05
3 *1607:A2 *1609:A3 1.77822e-05
4 *1609:A1 *1609:A3 7.65033e-06
5 *7:66 *1609:A3 4.52612e-06
6 *642:12 *1609:A3 6.94708e-06
*RES
1 *1607:ZN *1609:A3 23.6429 
*END

*D_NET *724 0.000128084
*CONN
*I *1609:A4 I *D NAND4_X1
*I *1608:ZN O *D NAND2_X1
*CAP
1 *1609:A4 5.66892e-05
2 *1608:ZN 5.66892e-05
3 *1605:A1 *1609:A4 0
4 *1609:A2 *1609:A4 0
5 *14:35 *1609:A4 1.47056e-05
6 *642:25 *1609:A4 0
*RES
1 *1608:ZN *1609:A4 16.0357 
*END

*D_NET *725 0.000452099
*CONN
*I *1617:A1 I *D NOR3_X2
*I *1609:ZN O *D NAND4_X1
*CAP
1 *1617:A1 9.18429e-05
2 *1609:ZN 9.18429e-05
3 *1607:A1 *1617:A1 4.79658e-06
4 *14:35 *1617:A1 9.0878e-05
5 *637:10 *1617:A1 6.31441e-05
6 *637:14 *1617:A1 5.48932e-05
7 *652:35 *1617:A1 1.04284e-05
8 *720:12 *1617:A1 4.42732e-05
*RES
1 *1609:ZN *1617:A1 35.1071 
*END

*D_NET *726 0.000290123
*CONN
*I *1614:A1 I *D NAND4_X1
*I *1610:ZN O *D NAND2_X1
*CAP
1 *1614:A1 0.000122685
2 *1610:ZN 0.000122685
3 *1614:A1 *1614:A2 1.02786e-05
4 *1577:B *1614:A1 1.29359e-05
5 *14:46 *1614:A1 0
6 *15:53 *1614:A1 1.89812e-05
7 *640:22 *1614:A1 2.55787e-06
*RES
1 *1610:ZN *1614:A1 23.25 
*END

*D_NET *727 9.18479e-05
*CONN
*I *1614:A2 I *D NAND4_X1
*I *1611:ZN O *D NAND2_X1
*CAP
1 *1614:A2 3.01372e-05
2 *1611:ZN 3.01372e-05
3 *1614:A2 *1614:A3 1.68459e-05
4 *1614:A2 *1617:A2 0
5 *1614:A1 *1614:A2 1.02786e-05
6 *640:22 *1614:A2 4.44888e-06
*RES
1 *1611:ZN *1614:A2 13.6786 
*END

*D_NET *728 0.000500318
*CONN
*I *1614:A3 I *D NAND4_X1
*I *1612:ZN O *D NAND2_X1
*CAP
1 *1614:A3 0.000125219
2 *1612:ZN 0.000125219
3 *1614:A3 *1614:A4 4.43766e-05
4 *1608:A1 *1614:A3 0
5 *1611:A2 *1614:A3 4.16195e-06
6 *1614:A2 *1614:A3 1.68459e-05
7 *210:51 *1614:A3 9.57492e-07
8 *507:12 *1614:A3 0
9 *640:22 *1614:A3 1.13365e-05
10 *640:24 *1614:A3 3.64252e-05
11 *648:43 *1614:A3 8.16741e-05
12 *652:31 *1614:A3 5.41015e-05
*RES
1 *1612:ZN *1614:A3 36.9643 
*END

*D_NET *729 0.000263661
*CONN
*I *1614:A4 I *D NAND4_X1
*I *1613:ZN O *D NAND2_X1
*CAP
1 *1614:A4 7.38959e-05
2 *1613:ZN 7.38959e-05
3 *1611:A2 *1614:A4 7.66675e-07
4 *1614:A3 *1614:A4 4.43766e-05
5 *14:35 *1614:A4 4.32144e-07
6 *14:46 *1614:A4 2.61494e-05
7 *640:22 *1614:A4 1.52895e-05
8 *652:31 *1614:A4 2.08208e-05
9 *652:35 *1614:A4 8.03358e-06
*RES
1 *1613:ZN *1614:A4 29.2143 
*END

*D_NET *730 0.000124723
*CONN
*I *1617:A2 I *D NOR3_X2
*I *1614:ZN O *D NAND4_X1
*CAP
1 *1617:A2 5.35514e-05
2 *1614:ZN 5.35514e-05
3 *1617:A2 *1617:A3 8.43215e-07
4 *1614:A2 *1617:A2 0
5 *15:53 *1617:A2 0
6 *644:20 *1617:A2 1.67775e-05
7 *652:35 *1617:A2 0
*RES
1 *1614:ZN *1617:A2 15.1786 
*END

*D_NET *731 5.62331e-05
*CONN
*I *1616:A I *D OAI21_X1
*I *1615:ZN O *D NAND2_X1
*CAP
1 *1616:A 2.408e-05
2 *1615:ZN 2.408e-05
3 *1615:A1 *1616:A 2.86475e-06
4 *7:66 *1616:A 2.75346e-06
5 *644:14 *1616:A 2.16072e-07
6 *644:20 *1616:A 2.23871e-06
*RES
1 *1615:ZN *1616:A 12.8571 
*END

*D_NET *732 0.000209144
*CONN
*I *1617:A3 I *D NOR3_X2
*I *1616:ZN O *D OAI21_X1
*CAP
1 *1617:A3 8.75113e-05
2 *1616:ZN 8.75113e-05
3 *1617:A2 *1617:A3 8.43215e-07
4 *15:53 *1617:A3 1.69607e-05
5 *644:20 *1617:A3 1.63171e-05
*RES
1 *1616:ZN *1617:A3 19.8571 
*END

*D_NET *733 0.00123341
*CONN
*I *1618:A3 I *D NAND3_X4
*I *1617:ZN O *D NOR3_X2
*CAP
1 *1618:A3 0
2 *1617:ZN 0.000175855
3 *733:14 0.000175855
4 *1519:A1 *733:14 5.39412e-06
5 *1527:A2 *733:14 0.000202218
6 *1537:A1 *733:14 7.9954e-06
7 *1538:A2 *733:14 0
8 *1618:A1 *733:14 7.72537e-06
9 *165:22 *733:14 4.43868e-06
10 *637:8 *733:14 0.000252398
11 *637:10 *733:14 0.000255641
12 *644:22 *733:14 1.72405e-05
13 *690:10 *733:14 0.000118445
14 *720:12 *733:14 1.02017e-05
*RES
1 *1617:ZN *733:14 48.8214 
2 *733:14 *1618:A3 5 
*END

*D_NET *735 0.00227214
*CONN
*I *1686:A1 I *D NOR2_X2
*I *1723:A1 I *D OR2_X4
*I *1684:B1 I *D OAI21_X4
*I *1637:A1 I *D NAND3_X1
*I *1620:ZN O *D INV_X4
*CAP
1 *1686:A1 0.000108051
2 *1723:A1 0
3 *1684:B1 9.30031e-06
4 *1637:A1 9.98694e-05
5 *1620:ZN 3.22235e-05
6 *735:52 0.000250492
7 *735:39 0.000199997
8 *735:35 0.000332292
9 *735:8 0.000416129
10 *1637:A1 *1637:A2 2.75346e-06
11 *1637:A1 *1641:A1 2.05198e-05
12 *1686:A1 *1724:A2 0
13 *1686:A1 *830:10 0.000133405
14 *1686:A1 *1292:10 5.59765e-05
15 *735:8 *1641:A2 4.28244e-06
16 *735:35 *1639:A 1.03562e-05
17 *735:35 *1640:B2 0
18 *735:35 *1663:B1 2.41851e-05
19 *735:35 *1664:A 0.000198007
20 *735:35 *1665:A2 4.79658e-06
21 *1479:A *735:52 0
22 *1496:B2 *735:39 1.07429e-05
23 *1496:B2 *735:52 2.08304e-05
24 *1584:A *735:35 0
25 *1585:A *735:35 3.03275e-06
26 *1586:A2 *735:39 2.42461e-05
27 *1638:A1 *735:35 3.90865e-05
28 *1638:A2 *1637:A1 0
29 *1638:A3 *1637:A1 3.01738e-06
30 *1638:A3 *735:35 4.32144e-07
31 *1640:A *735:8 2.89018e-05
32 *1640:B1 *1637:A1 2.0679e-05
33 *1640:B1 *735:8 1.02238e-05
34 *1664:B *735:35 4.77786e-06
35 *2384:A *1686:A1 2.59775e-05
36 *158:6 *735:52 0
37 *165:24 *1637:A1 7.72537e-06
38 *183:12 *1637:A1 5.54348e-05
39 *240:10 *1684:B1 4.55949e-09
40 *240:10 *735:39 2.37302e-05
41 *612:12 *735:35 5.56936e-06
42 *613:10 *735:39 5.52959e-06
43 *616:8 *1637:A1 1.03226e-06
44 *616:19 *1637:A1 2.54978e-06
45 *617:10 *1637:A1 3.02296e-05
46 *697:20 *735:39 7.96507e-06
47 *697:20 *735:52 3.77811e-05
*RES
1 *1620:ZN *735:8 14.3214 
2 *735:8 *1637:A1 24.2143 
3 *735:8 *735:35 45.4643 
4 *735:35 *735:39 11.75 
5 *735:39 *1684:B1 5.92857 
6 *735:39 *735:52 16.9286 
7 *735:52 *1723:A1 5 
8 *735:52 *1686:A1 30.3571 
*END

*D_NET *736 0.000266658
*CONN
*I *1622:A1 I *D NAND3_X1
*I *1621:ZN O *D NAND2_X1
*CAP
1 *1622:A1 4.90068e-05
2 *1621:ZN 4.90068e-05
3 *1622:A1 *1624:A 4.09928e-05
4 *1622:A1 *751:12 8.96778e-05
5 *630:14 *1622:A1 8.43215e-07
6 *630:18 *1622:A1 8.34066e-06
7 *633:48 *1622:A1 6.68103e-06
8 *648:66 *1622:A1 2.21086e-05
*RES
1 *1621:ZN *1622:A1 27.25 
*END

*D_NET *737 0.000369949
*CONN
*I *1625:A1 I *D NAND2_X1
*I *1622:ZN O *D NAND3_X1
*CAP
1 *1625:A1 6.74726e-05
2 *1622:ZN 6.74726e-05
3 *1625:A1 *1624:A 4.02036e-05
4 *1625:A1 *751:14 1.94663e-05
5 *1625:A1 *792:38 6.04034e-05
6 *1550:B1 *1625:A1 2.43271e-05
7 *633:48 *1625:A1 9.0603e-05
*RES
1 *1622:ZN *1625:A1 31.6786 
*END

*D_NET *738 0.000324971
*CONN
*I *1624:A I *D OAI21_X1
*I *1623:ZN O *D NOR2_X1
*CAP
1 *1624:A 8.4302e-05
2 *1623:ZN 8.4302e-05
3 *1624:A *1625:A2 2.39679e-06
4 *1624:A *751:12 8.36915e-06
5 *1624:A *751:14 2.05179e-06
6 *1550:B1 *1624:A 2.51703e-05
7 *1622:A1 *1624:A 4.09928e-05
8 *1625:A1 *1624:A 4.02036e-05
9 *633:48 *1624:A 9.17282e-06
10 *634:55 *1624:A 0
11 *648:66 *1624:A 2.77939e-05
12 *664:12 *1624:A 2.16072e-07
*RES
1 *1623:ZN *1624:A 31.5 
*END

*D_NET *739 0.000148416
*CONN
*I *1625:A2 I *D NAND2_X1
*I *1624:ZN O *D OAI21_X1
*CAP
1 *1625:A2 3.66758e-05
2 *1624:ZN 3.66758e-05
3 *1550:B1 *1625:A2 5.58452e-05
4 *1621:A1 *1625:A2 1.68226e-05
5 *1624:A *1625:A2 2.39679e-06
*RES
1 *1624:ZN *1625:A2 24.3929 
*END

*D_NET *740 0.00144975
*CONN
*I *1637:A2 I *D NAND3_X1
*I *1625:ZN O *D NAND2_X1
*CAP
1 *1637:A2 4.63415e-06
2 *1625:ZN 3.11961e-05
3 *740:10 0.000393144
4 *740:8 0.000419706
5 *1637:A2 *1637:A3 7.72792e-06
6 *740:8 *792:38 6.44217e-06
7 *740:10 *1641:A1 1.88334e-06
8 *1488:A1 *740:10 0.000147187
9 *1498:A *740:10 0
10 *1637:A1 *1637:A2 2.75346e-06
11 *2382:B *740:10 5.03973e-05
12 *2383:B1 *740:10 0.00012016
13 *2393:B *740:10 0.000229044
14 *165:24 *1637:A2 1.87637e-06
15 *182:10 *740:10 5.10087e-06
16 *183:12 *740:10 2.85006e-05
17 *602:16 *740:10 0
18 *664:12 *740:8 0
*RES
1 *1625:ZN *740:8 13.25 
2 *740:8 *740:10 50.4643 
3 *740:10 *1637:A2 10.75 
*END

*D_NET *741 0.000131998
*CONN
*I *1630:A1 I *D NAND4_X1
*I *1626:ZN O *D NAND2_X1
*CAP
1 *1630:A1 5.32151e-05
2 *1626:ZN 5.32151e-05
3 *1630:A1 *1630:A3 7.16188e-07
4 *1680:A *1630:A1 3.60384e-06
5 *637:51 *1630:A1 0
6 *640:47 *1630:A1 9.03443e-06
7 *644:73 *1630:A1 9.12177e-06
8 *652:48 *1630:A1 3.09143e-06
*RES
1 *1626:ZN *1630:A1 25.75 
*END

*D_NET *742 7.47913e-05
*CONN
*I *1630:A2 I *D NAND4_X1
*I *1627:ZN O *D OR2_X1
*CAP
1 *1630:A2 2.80834e-05
2 *1627:ZN 2.80834e-05
3 *5:49 *1630:A2 0
4 *644:73 *1630:A2 1.86245e-05
*RES
1 *1627:ZN *1630:A2 22.9643 
*END

*D_NET *743 8.97663e-05
*CONN
*I *1630:A3 I *D NAND4_X1
*I *1628:ZN O *D NAND2_X1
*CAP
1 *1630:A3 2.96613e-05
2 *1628:ZN 2.96613e-05
3 *1630:A3 *1636:A1 1.28122e-06
4 *1630:A1 *1630:A3 7.16188e-07
5 *637:51 *1630:A3 2.77301e-05
6 *637:64 *1630:A3 0
7 *640:47 *1630:A3 7.16188e-07
8 *652:48 *1630:A3 0
*RES
1 *1628:ZN *1630:A3 13.9286 
*END

*D_NET *744 0.000100104
*CONN
*I *1630:A4 I *D NAND4_X1
*I *1629:ZN O *D NAND2_X1
*CAP
1 *1630:A4 3.08642e-05
2 *1629:ZN 3.08642e-05
3 *637:51 *1630:A4 3.83757e-05
4 *652:48 *1630:A4 0
*RES
1 *1629:ZN *1630:A4 13.75 
*END

*D_NET *745 0.000305486
*CONN
*I *1636:A1 I *D NOR2_X1
*I *1630:ZN O *D NAND4_X1
*CAP
1 *1636:A1 8.3996e-05
2 *1630:ZN 8.3996e-05
3 *1636:A1 *1636:A2 1.72426e-05
4 *1630:A3 *1636:A1 1.28122e-06
5 *13:38 *1636:A1 7.41062e-06
6 *640:47 *1636:A1 6.44758e-05
7 *647:76 *1636:A1 0
8 *652:48 *1636:A1 4.26446e-05
9 *652:52 *1636:A1 4.43868e-06
*RES
1 *1630:ZN *1636:A1 31.2857 
*END

*D_NET *746 0.000368203
*CONN
*I *1635:A1 I *D NAND4_X1
*I *1631:ZN O *D OR2_X1
*CAP
1 *1635:A1 7.48683e-05
2 *1631:ZN 7.48683e-05
3 *5:49 *1635:A1 8.95998e-06
4 *13:38 *1635:A1 0.0001269
5 *637:64 *1635:A1 3.76666e-05
6 *640:47 *1635:A1 3.71145e-05
7 *642:51 *1635:A1 7.82526e-06
*RES
1 *1631:ZN *1635:A1 30.7857 
*END

*D_NET *747 0.000129638
*CONN
*I *1635:A2 I *D NAND4_X1
*I *1632:ZN O *D NAND2_X1
*CAP
1 *1635:A2 3.5741e-05
2 *1632:ZN 3.5741e-05
3 *1635:A2 *1635:A3 2.86077e-05
4 *5:36 *1635:A2 7.66675e-07
5 *637:64 *1635:A2 2.80727e-05
6 *652:52 *1635:A2 7.08414e-07
*RES
1 *1632:ZN *1635:A2 24.3571 
*END

*D_NET *748 0.000214918
*CONN
*I *1635:A3 I *D NAND4_X1
*I *1633:ZN O *D NAND2_X1
*CAP
1 *1635:A3 5.11165e-05
2 *1633:ZN 5.11165e-05
3 *1635:A2 *1635:A3 2.86077e-05
4 *5:16 *1635:A3 3.90891e-05
5 *5:36 *1635:A3 3.90865e-05
6 *637:64 *1635:A3 5.90144e-06
*RES
1 *1633:ZN *1635:A3 17.75 
*END

*D_NET *749 5.9105e-05
*CONN
*I *1635:A4 I *D NAND4_X1
*I *1634:ZN O *D NAND2_X1
*CAP
1 *1635:A4 2.32907e-05
2 *1634:ZN 2.32907e-05
3 *1635:A4 *1636:A2 8.26038e-06
4 *1634:A2 *1635:A4 3.58094e-06
5 *637:64 *1635:A4 6.82202e-07
*RES
1 *1634:ZN *1635:A4 12.8571 
*END

*D_NET *750 0.000207285
*CONN
*I *1636:A2 I *D NOR2_X1
*I *1635:ZN O *D NAND4_X1
*CAP
1 *1636:A2 4.41205e-05
2 *1635:ZN 4.41205e-05
3 *1635:A4 *1636:A2 8.26038e-06
4 *1636:A1 *1636:A2 1.72426e-05
5 *13:38 *1636:A2 4.39431e-06
6 *637:64 *1636:A2 3.09143e-06
7 *640:47 *1636:A2 2.52965e-06
8 *652:48 *1636:A2 7.19036e-06
9 *652:52 *1636:A2 7.63351e-05
*RES
1 *1635:ZN *1636:A2 25.8214 
*END

*D_NET *751 0.00247815
*CONN
*I *1637:A3 I *D NAND3_X1
*I *1636:ZN O *D NOR2_X1
*CAP
1 *1637:A3 0.000109859
2 *1636:ZN 6.9609e-06
3 *751:14 0.000512733
4 *751:12 0.000642041
5 *751:8 0.000246127
6 *751:12 *1659:B1 8.75903e-06
7 *751:12 *1660:B1 6.50581e-06
8 *751:12 *771:14 1.16029e-05
9 *751:12 *775:12 8.96334e-05
10 *751:12 *775:14 6.32162e-05
11 *751:12 *792:36 0.000130019
12 *751:14 *775:14 0.000188527
13 *751:14 *792:36 2.28288e-05
14 *1599:A2 *751:12 3.6924e-06
15 *1622:A1 *751:12 8.96778e-05
16 *1624:A *751:12 8.36915e-06
17 *1624:A *751:14 2.05179e-06
18 *1625:A1 *751:14 1.94663e-05
19 *1637:A2 *1637:A3 7.72792e-06
20 *1645:A2 *751:12 2.0501e-05
21 *1659:A *751:12 2.84121e-05
22 *2393:A *1637:A3 0
23 *13:38 *751:12 0.00019485
24 *165:24 *1637:A3 2.67151e-05
25 *199:16 *751:12 3.6924e-06
26 *633:48 *751:12 1.90574e-06
27 *633:48 *751:14 2.46481e-05
28 *647:76 *751:8 0
29 *652:48 *751:8 7.63212e-06
*RES
1 *1636:ZN *751:8 10.75 
2 *751:8 *751:12 41.1786 
3 *751:12 *751:14 51 
4 *751:14 *1637:A3 22.25 
*END

*D_NET *752 0.000697132
*CONN
*I *1641:A1 I *D NAND2_X2
*I *1637:ZN O *D NAND3_X1
*CAP
1 *1641:A1 0.000156455
2 *1637:ZN 0.000156455
3 *1641:A1 *1641:A2 0.000153877
4 *1641:A1 *756:10 5.75004e-07
5 *1637:A1 *1641:A1 2.05198e-05
6 *1640:B1 *1641:A1 1.66996e-05
7 *182:10 *1641:A1 0.000171597
8 *183:12 *1641:A1 1.4293e-06
9 *617:10 *1641:A1 1.76415e-05
10 *656:51 *1641:A1 0
11 *740:10 *1641:A1 1.88334e-06
*RES
1 *1637:ZN *1641:A1 44.3929 
*END

*D_NET *753 9.22283e-05
*CONN
*I *1639:A I *D INV_X1
*I *1638:ZN O *D NAND3_X1
*CAP
1 *1639:A 3.89073e-05
2 *1638:ZN 3.89073e-05
3 *1639:A *1640:B2 3.19164e-07
4 *1639:A *1665:A2 0
5 *1500:B1 *1639:A 8.43215e-07
6 *1584:A *1639:A 2.89521e-06
7 *1640:A *1639:A 0
8 *617:10 *1639:A 0
9 *735:35 *1639:A 1.03562e-05
*RES
1 *1638:ZN *1639:A 14.1786 
*END

*D_NET *754 1.74261e-05
*CONN
*I *1640:B2 I *D OAI21_X1
*I *1639:ZN O *D INV_X1
*CAP
1 *1640:B2 8.55349e-06
2 *1639:ZN 8.55349e-06
3 *1639:A *1640:B2 3.19164e-07
4 *735:35 *1640:B2 0
*RES
1 *1639:ZN *1640:B2 10.9286 
*END

*D_NET *755 0.000267155
*CONN
*I *1641:A2 I *D NAND2_X2
*I *1640:ZN O *D OAI21_X1
*CAP
1 *1641:A2 5.04495e-05
2 *1640:ZN 5.04495e-05
3 *1640:A *1641:A2 6.21255e-06
4 *1640:B1 *1641:A2 1.88334e-06
5 *1641:A1 *1641:A2 0.000153877
6 *656:51 *1641:A2 0
7 *735:8 *1641:A2 4.28244e-06
*RES
1 *1640:ZN *1641:A2 28.4643 
*END

*D_NET *756 0.015162
*CONN
*I *1958:B1 I *D OAI21_X1
*I *2147:B1 I *D OAI21_X1
*I *2166:B1 I *D OAI21_X1
*I *2034:B1 I *D OAI21_X1
*I *2241:B1 I *D OAI21_X1
*I *1643:A I *D INV_X1
*I *2204:B1 I *D OAI21_X1
*I *2185:B1 I *D OAI21_X1
*I *2222:B1 I *D OAI21_X1
*I *2090:B1 I *D OAI21_X1
*I *2053:B1 I *D OAI21_X1
*I *2071:B1 I *D OAI21_X1
*I *2110:B1 I *D OAI21_X1
*I *2129:B1 I *D OAI21_X1
*I *2014:B1 I *D OAI21_X1
*I *1975:B1 I *D OAI21_X1
*I *1994:B1 I *D OAI21_X1
*I *1641:ZN O *D NAND2_X2
*CAP
1 *1958:B1 3.71856e-05
2 *2147:B1 6.15389e-05
3 *2166:B1 6.08483e-06
4 *2034:B1 4.35446e-05
5 *2241:B1 0
6 *1643:A 0.000188643
7 *2204:B1 0.000203839
8 *2185:B1 0
9 *2222:B1 0.000216599
10 *2090:B1 9.28758e-06
11 *2053:B1 0.00023568
12 *2071:B1 0.000139885
13 *2110:B1 9.58952e-05
14 *2129:B1 0.000155414
15 *2014:B1 9.46096e-06
16 *1975:B1 1.81497e-05
17 *1994:B1 0.000221248
18 *1641:ZN 0.000134893
19 *756:196 0.000623081
20 *756:190 0.000523404
21 *756:173 0.0003129
22 *756:130 0.00032076
23 *756:128 0.000644384
24 *756:122 0.000636211
25 *756:116 0.000371508
26 *756:103 0.000530636
27 *756:101 0.00032691
28 *756:99 0.000210478
29 *756:84 0.000443378
30 *756:73 0.000412348
31 *756:69 0.000464266
32 *756:54 0.000464547
33 *756:41 0.000392434
34 *756:20 0.000753314
35 *756:12 0.00112676
36 *756:10 0.000900482
37 *1643:A *1703:A 4.81535e-05
38 *1958:B1 *1958:A 1.32323e-05
39 *1975:B1 *1975:A 2.39679e-06
40 *1975:B1 *811:40 3.02351e-05
41 *1994:B1 *1405:CK 1.27093e-05
42 *1994:B1 *1817:A 3.22141e-05
43 *1994:B1 *1896:A 4.57324e-05
44 *1994:B1 *1994:A 3.22834e-06
45 *1994:B1 *1994:B2 1.21774e-06
46 *1994:B1 *1303:929 8.58925e-06
47 *1994:B1 *1303:940 1.90574e-06
48 *2014:B1 *2014:A 2.39679e-06
49 *2014:B1 *1077:64 4.9678e-06
50 *2034:B1 *1421:CK 7.72792e-06
51 *2034:B1 *2034:A 2.39679e-06
52 *2053:B1 *1429:CK 2.15333e-05
53 *2053:B1 *1445:CK 5.0272e-06
54 *2053:B1 *2053:A 2.39679e-06
55 *2053:B1 *837:305 0
56 *2053:B1 *853:85 0
57 *2053:B1 *1319:25 5.20238e-07
58 *2071:B1 *1437:CK 0
59 *2071:B1 *2071:A 8.26038e-06
60 *2071:B1 *2071:B2 1.21774e-06
61 *2071:B1 *1090:63 0
62 *2090:B1 *1445:CK 5.42692e-07
63 *2129:B1 *1911:B1 0
64 *2129:B1 *811:63 0
65 *2129:B1 *1311:53 0
66 *2129:B1 *1311:62 5.64909e-05
67 *2147:B1 *1346:CK 3.37896e-05
68 *2204:B1 *1373:CK 3.84371e-05
69 *2204:B1 *1703:A 2.71785e-05
70 *2204:B1 *811:185 2.02659e-05
71 *2222:B1 *837:305 0
72 *2222:B1 *1319:25 0
73 *756:12 *1337:CK 0
74 *756:12 *1967:A1 0
75 *756:12 *1967:A2 0
76 *756:12 *1969:A1 0
77 *756:12 *1969:A2 0
78 *756:12 *1040:55 0
79 *756:12 *1294:12 0
80 *756:20 *1958:B2 0
81 *756:20 *1965:A1 0
82 *756:20 *2002:B1 8.84024e-05
83 *756:20 *1042:59 0
84 *756:20 *1309:55 1.53342e-05
85 *756:20 *1309:66 7.96507e-06
86 *756:41 *1899:A1 1.51469e-05
87 *756:41 *1899:A2 2.8336e-05
88 *756:41 *1899:B1 3.17762e-05
89 *756:41 *837:514 0
90 *756:41 *1309:66 9.05554e-06
91 *756:54 *2013:A1 9.24246e-06
92 *756:54 *811:40 0.000407443
93 *756:54 *811:55 0.00023657
94 *756:54 *1077:76 8.19063e-05
95 *756:69 *2013:A1 2.0679e-05
96 *756:69 *811:55 0.00033653
97 *756:73 *811:61 7.21062e-05
98 *756:73 *1311:64 0
99 *756:84 *1303:786 8.18266e-06
100 *756:84 *1303:795 3.06181e-06
101 *756:84 *1311:64 0
102 *756:84 *1311:90 0
103 *756:99 *1829:A1 6.67397e-06
104 *756:99 *1303:795 2.6231e-06
105 *756:103 *2042:A 2.99872e-05
106 *756:103 *2042:B2 9.30896e-05
107 *756:103 *1090:67 0.000171847
108 *756:103 *1317:45 4.65467e-05
109 *756:103 *1317:56 7.91546e-05
110 *756:116 *1421:CK 3.63228e-05
111 *756:116 *1317:56 2.96901e-05
112 *756:122 *1421:CK 1.35725e-05
113 *756:122 *1437:CK 0
114 *756:122 *1303:601 6.78899e-05
115 *756:122 *1303:607 9.52084e-05
116 *756:128 *1362:CK 0
117 *756:128 *1365:CK 0
118 *756:130 *1445:CK 2.08098e-06
119 *756:130 *837:305 0
120 *756:130 *1319:25 0
121 *756:196 *1386:CK 0
122 *756:196 *1319:135 0
123 *1346:D *2147:B1 4.32144e-07
124 *1362:D *756:128 1.64551e-05
125 *1365:D *756:122 0
126 *1365:D *756:173 0
127 *1373:D *2204:B1 3.89149e-05
128 *1402:D *1994:B1 2.08098e-06
129 *1402:D *756:20 3.85541e-05
130 *1405:D *1994:B1 2.97759e-05
131 *1410:D *756:54 6.39737e-05
132 *1418:D *756:103 0.000184342
133 *1421:D *2034:B1 5.61423e-05
134 *1429:D *2053:B1 3.96215e-05
135 *1437:D *2071:B1 1.76728e-05
136 *1445:D *2090:B1 2.61322e-06
137 *1453:D *2110:B1 1.5896e-05
138 *1461:D *2129:B1 5.41831e-05
139 *1641:A1 *756:10 5.75004e-07
140 *1811:B2 *2222:B1 6.707e-06
141 *1812:B2 *756:190 5.56848e-05
142 *1816:A2 *2014:B1 4.12459e-06
143 *1819:A2 *756:54 0
144 *1822:A *2053:B1 9.30875e-05
145 *1822:B2 *2053:B1 2.87703e-06
146 *1823:A2 *2034:B1 0
147 *1823:A2 *756:122 0
148 *1830:B2 *2110:B1 1.28574e-05
149 *1831:A2 *2166:B1 1.68643e-06
150 *1831:A2 *756:99 6.52138e-06
151 *1896:B2 *1994:B1 2.96955e-05
152 *1896:B2 *756:20 7.72537e-06
153 *1896:B2 *756:41 3.23363e-05
154 *1909:A *2129:B1 6.48216e-07
155 *1909:B2 *2129:B1 0
156 *1909:B2 *756:73 2.08098e-06
157 *1974:A1 *1975:B1 1.07633e-05
158 *1974:A1 *756:54 1.14365e-05
159 *1974:A2 *756:54 0
160 *2001:A2 *756:20 1.90208e-06
161 *2033:A2 *2034:B1 7.34533e-06
162 *2052:A2 *2053:B1 2.72302e-05
163 *2089:A1 *2053:B1 2.73726e-06
164 *2089:A1 *756:130 2.10291e-06
165 *2090:A *2090:B1 6.8609e-06
166 *2090:A *756:130 2.94455e-05
167 *2090:B2 *2090:B1 9.67505e-07
168 *2109:A2 *2110:B1 6.06867e-06
169 *2110:A *2110:B1 2.39679e-06
170 *2129:A *2129:B1 1.74934e-05
171 *2136:B2 *2129:B1 2.16072e-07
172 *2146:A2 *2147:B1 5.36702e-06
173 *2147:A *2147:B1 2.39679e-06
174 *2147:B2 *2147:B1 3.09411e-06
175 *2165:A1 *756:99 4.62745e-06
176 *2165:A1 *756:103 5.54369e-05
177 *2166:A *2166:B1 2.39679e-06
178 *2184:A2 *756:190 6.76378e-05
179 *2185:A *756:128 3.82997e-06
180 *2185:B2 *756:128 7.72537e-06
181 *2185:B2 *756:173 3.02372e-05
182 *2185:B2 *756:190 2.84283e-05
183 *2203:A2 *2204:B1 4.78395e-06
184 *2204:A *2204:B1 2.39679e-06
185 *2221:A2 *2222:B1 1.52596e-05
186 *2222:A *2222:B1 8.43215e-07
187 *2241:A *756:190 2.39679e-06
188 *2241:B2 *756:190 1.21774e-06
189 *2249:A *2204:B1 5.52959e-06
190 *37:12 *756:103 0
191 *53:10 *2204:B1 0
192 *82:8 *1994:B1 4.32319e-05
193 *391:68 *2110:B1 1.88066e-05
194 *403:74 *2129:B1 8.43215e-07
195 *414:51 *2147:B1 0
196 *414:51 *756:69 0
197 *414:77 *2147:B1 4.64697e-05
198 *426:77 *2166:B1 0
199 *426:77 *756:99 1.55606e-05
200 *438:46 *756:128 0
201 *438:50 *756:128 0
202 *438:61 *756:128 0
203 *593:247 *2053:B1 8.08846e-05
204 *609:171 *2222:B1 4.91993e-05
205 *634:170 *1975:B1 2.23415e-06
206 *634:170 *756:41 2.55787e-06
207 *636:107 *1994:B1 0
*RES
1 *1641:ZN *756:10 30.1786 
2 *756:10 *756:12 75.75 
3 *756:12 *756:20 49.4286 
4 *756:20 *1994:B1 44.2143 
5 *756:20 *756:41 29.1072 
6 *756:41 *1975:B1 12.8571 
7 *756:41 *756:54 34.1786 
8 *756:54 *2014:B1 11.25 
9 *756:54 *756:69 42.1429 
10 *756:69 *756:73 19.5 
11 *756:73 *2129:B1 28.75 
12 *756:73 *756:84 15.1786 
13 *756:84 *2110:B1 21.75 
14 *756:84 *756:99 28.2143 
15 *756:99 *756:101 5 
16 *756:101 *756:103 47.0714 
17 *756:103 *2071:B1 24.25 
18 *756:103 *756:116 14.0714 
19 *756:116 *756:122 36.6429 
20 *756:122 *756:128 45.25 
21 *756:128 *756:130 9.07143 
22 *756:130 *2053:B1 40.25 
23 *756:130 *2090:B1 11.4643 
24 *756:128 *2222:B1 34.8214 
25 *756:122 *756:173 2.28572 
26 *756:173 *2185:B1 10 
27 *756:173 *756:190 38.2857 
28 *756:190 *756:196 34.6786 
29 *756:196 *2204:B1 29.75 
30 *756:196 *1643:A 26.4286 
31 *756:190 *2241:B1 5 
32 *756:116 *2034:B1 11.25 
33 *756:99 *2166:B1 5.75 
34 *756:69 *2147:B1 13.4286 
35 *756:12 *1958:B1 8.75 
*END

*D_NET *758 0.000254506
*CONN
*I *1648:A1 I *D AND4_X1
*I *1644:ZN O *D NAND2_X1
*CAP
1 *1648:A1 7.75891e-05
2 *1644:ZN 7.75891e-05
3 *1648:A1 *1648:A2 1.21774e-06
4 *1648:A1 *1648:A3 2.01597e-05
5 *1648:A1 *1653:A3 1.21774e-06
6 *1648:A1 *1653:A4 2.17903e-06
7 *1652:A2 *1648:A1 1.25189e-05
8 *637:64 *1648:A1 6.20349e-05
*RES
1 *1644:ZN *1648:A1 21.7857 
*END

*D_NET *759 0.000541917
*CONN
*I *1648:A2 I *D AND4_X1
*I *1645:ZN O *D NAND2_X1
*CAP
1 *1648:A2 0.000244558
2 *1645:ZN 0.000244558
3 *1648:A2 *1648:A3 2.75346e-06
4 *1648:A2 *1648:A4 1.28019e-05
5 *1648:A2 *1657:A1 0
6 *1648:A2 *771:14 0
7 *1647:A1 *1648:A2 1.32348e-05
8 *1647:A2 *1648:A2 1.32323e-05
9 *1648:A1 *1648:A2 1.21774e-06
10 *629:38 *1648:A2 0
11 *637:64 *1648:A2 9.56055e-06
*RES
1 *1645:ZN *1648:A2 45.7143 
*END

*D_NET *760 0.000493358
*CONN
*I *1648:A3 I *D AND4_X1
*I *1646:ZN O *D NAND2_X1
*CAP
1 *1648:A3 0.000164048
2 *1646:ZN 0.000164048
3 *1648:A3 *1648:A4 2.75346e-06
4 *1648:A3 *1653:A2 6.91187e-06
5 *1648:A3 *1653:A4 4.35054e-05
6 *1648:A3 *1656:A 4.46283e-05
7 *1648:A3 *1657:A2 9.01406e-06
8 *1648:A3 *1657:A3 7.83067e-06
9 *1648:A1 *1648:A3 2.01597e-05
10 *1648:A2 *1648:A3 2.75346e-06
11 *1650:A2 *1648:A3 1.28122e-06
12 *1654:A2 *1648:A3 4.91493e-06
13 *1655:B1 *1648:A3 1.26998e-05
14 *1655:B2 *1648:A3 7.19036e-06
15 *4:14 *1648:A3 0
16 *198:14 *1648:A3 1.61803e-06
17 *637:64 *1648:A3 0
18 *637:77 *1648:A3 0
*RES
1 *1646:ZN *1648:A3 30.6072 
*END

*D_NET *761 8.86962e-05
*CONN
*I *1648:A4 I *D AND4_X1
*I *1647:ZN O *D NAND2_X1
*CAP
1 *1648:A4 3.62123e-05
2 *1647:ZN 3.62123e-05
3 *1648:A4 *1657:A1 0
4 *1648:A4 *1657:A3 7.16188e-07
5 *1648:A4 *771:14 0
6 *1647:A1 *1648:A4 0
7 *1648:A2 *1648:A4 1.28019e-05
8 *1648:A3 *1648:A4 2.75346e-06
9 *647:76 *1648:A4 0
*RES
1 *1647:ZN *1648:A4 14.1786 
*END

*D_NET *762 6.77032e-05
*CONN
*I *1657:A1 I *D NAND3_X1
*I *1648:ZN O *D AND4_X1
*CAP
1 *1657:A1 3.17739e-05
2 *1648:ZN 3.17739e-05
3 *1657:A1 *1657:A2 2.75346e-06
4 *1648:A2 *1657:A1 0
5 *1648:A4 *1657:A1 0
6 *647:76 *1657:A1 1.40196e-06
*RES
1 *1648:ZN *1657:A1 23.0357 
*END

*D_NET *763 0.000270824
*CONN
*I *1653:A1 I *D AND4_X1
*I *1649:ZN O *D OR2_X1
*CAP
1 *1653:A1 3.96868e-05
2 *1649:ZN 3.96868e-05
3 *1653:A1 *1653:A2 2.75346e-06
4 *1653:A1 *1653:A3 1.87637e-06
5 *1644:A1 *1653:A1 2.75346e-06
6 *12:27 *1653:A1 0.000113931
7 *637:64 *1653:A1 2.43548e-06
8 *642:61 *1653:A1 7.57858e-06
9 *642:72 *1653:A1 3.68173e-05
10 *652:82 *1653:A1 2.33042e-05
*RES
1 *1649:ZN *1653:A1 27.1071 
*END

*D_NET *764 8.34415e-05
*CONN
*I *1653:A2 I *D AND4_X1
*I *1650:ZN O *D NAND2_X1
*CAP
1 *1653:A2 3.14597e-05
2 *1650:ZN 3.14597e-05
3 *1653:A2 *1653:A3 2.75346e-06
4 *1644:A1 *1653:A2 1.87369e-06
5 *1648:A3 *1653:A2 6.91187e-06
6 *1653:A1 *1653:A2 2.75346e-06
7 *637:64 *1653:A2 6.22967e-06
*RES
1 *1650:ZN *1653:A2 13.75 
*END

*D_NET *765 0.000878514
*CONN
*I *1653:A3 I *D AND4_X1
*I *1651:ZN O *D NAND2_X1
*CAP
1 *1653:A3 0.000135229
2 *1651:ZN 0.000135229
3 *1653:A3 *1653:A4 1.73151e-05
4 *1653:A3 *1656:A 1.14037e-05
5 *1648:A1 *1653:A3 1.21774e-06
6 *1653:A1 *1653:A3 1.87637e-06
7 *1653:A2 *1653:A3 2.75346e-06
8 *4:46 *1653:A3 4.85778e-06
9 *12:27 *1653:A3 0.000476349
10 *198:12 *1653:A3 9.16405e-05
11 *637:64 *1653:A3 6.42887e-07
*RES
1 *1651:ZN *1653:A3 47.1072 
*END

*D_NET *766 0.000135061
*CONN
*I *1653:A4 I *D AND4_X1
*I *1652:ZN O *D NAND2_X1
*CAP
1 *1653:A4 3.60306e-05
2 *1652:ZN 3.60306e-05
3 *1648:A1 *1653:A4 2.17903e-06
4 *1648:A3 *1653:A4 4.35054e-05
5 *1653:A3 *1653:A4 1.73151e-05
*RES
1 *1652:ZN *1653:A4 14.8571 
*END

*D_NET *767 0.000278624
*CONN
*I *1657:A2 I *D NAND3_X1
*I *1653:ZN O *D AND4_X1
*CAP
1 *1657:A2 8.89678e-05
2 *1653:ZN 8.89678e-05
3 *1657:A2 *1656:A 2.237e-05
4 *1657:A2 *1657:A3 4.28516e-05
5 *1648:A3 *1657:A2 9.01406e-06
6 *1657:A1 *1657:A2 2.75346e-06
7 *198:14 *1657:A2 2.11458e-05
8 *647:76 *1657:A2 2.55331e-06
*RES
1 *1653:ZN *1657:A2 21.3571 
*END

*D_NET *768 9.5175e-05
*CONN
*I *1655:A I *D OAI21_X1
*I *1654:ZN O *D NAND2_X1
*CAP
1 *1655:A 2.1305e-05
2 *1654:ZN 2.1305e-05
3 *1646:A2 *1655:A 0
4 *1654:A2 *1655:A 2.39679e-06
5 *1655:B1 *1655:A 7.72792e-06
6 *637:75 *1655:A 4.24402e-05
*RES
1 *1654:ZN *1655:A 23.0357 
*END

*D_NET *769 0.000426802
*CONN
*I *1656:A I *D INV_X1
*I *1655:ZN O *D OAI21_X1
*CAP
1 *1656:A 0.00011925
2 *1655:ZN 0.00011925
3 *1648:A3 *1656:A 4.46283e-05
4 *1653:A3 *1656:A 1.14037e-05
5 *1654:A2 *1656:A 2.3009e-05
6 *1657:A2 *1656:A 2.237e-05
7 *4:46 *1656:A 6.78721e-07
8 *198:12 *1656:A 1.72084e-05
9 *198:14 *1656:A 2.56145e-05
10 *644:88 *1656:A 0
11 *647:76 *1656:A 2.86516e-06
12 *652:82 *1656:A 4.05251e-05
*RES
1 *1655:ZN *1656:A 44.25 
*END

*D_NET *770 0.000117104
*CONN
*I *1657:A3 I *D NAND3_X1
*I *1656:ZN O *D INV_X1
*CAP
1 *1657:A3 3.28527e-05
2 *1656:ZN 3.28527e-05
3 *1648:A3 *1657:A3 7.83067e-06
4 *1648:A4 *1657:A3 7.16188e-07
5 *1657:A2 *1657:A3 4.28516e-05
*RES
1 *1656:ZN *1657:A3 14.9286 
*END

*D_NET *771 0.000679032
*CONN
*I *1661:A1 I *D NOR2_X1
*I *1657:ZN O *D NAND3_X1
*CAP
1 *1661:A1 0
2 *1657:ZN 0.000252065
3 *771:14 0.000252065
4 *771:14 *1660:B1 2.16072e-07
5 *771:14 *1661:A2 8.43215e-07
6 *1512:A *771:14 0
7 *1645:A2 *771:14 0.000106874
8 *1647:A1 *771:14 0
9 *1648:A2 *771:14 0
10 *1648:A4 *771:14 0
11 *629:38 *771:14 0
12 *640:47 *771:14 0
13 *647:76 *771:14 5.53662e-05
14 *751:12 *771:14 1.16029e-05
*RES
1 *1657:ZN *771:14 45.0357 
2 *771:14 *1661:A1 5 
*END

*D_NET *772 0.00149411
*CONN
*I *2306:B1 I *D OAI21_X1
*I *1659:B1 I *D OAI21_X1
*I *1660:B1 I *D AOI21_X1
*I *1658:ZN O *D INV_X1
*CAP
1 *2306:B1 4.89461e-05
2 *1659:B1 2.17058e-05
3 *1660:B1 1.45128e-05
4 *1658:ZN 0
5 *772:14 0.000445896
6 *772:10 0.000558523
7 *772:4 0.000197792
8 *1660:B1 *1660:A 2.39679e-06
9 *1660:B1 *1661:A2 0
10 *772:10 *813:16 4.77974e-06
11 *772:14 *1661:A2 0
12 *772:14 *1705:A2 0
13 *772:14 *775:12 0
14 *772:14 *813:16 0
15 *1570:A *772:10 7.2187e-06
16 *1599:A2 *1659:B1 1.29947e-05
17 *1599:A2 *772:14 0
18 *1659:A *1659:B1 7.72537e-06
19 *1948:A *772:14 2.52965e-06
20 *2306:A *2306:B1 8.43215e-07
21 *2306:B2 *2306:B1 2.39679e-06
22 *2308:B2 *772:10 2.41529e-05
23 *2312:B1 *772:14 0
24 *2312:B2 *772:14 0
25 *2318:A1 *772:14 0
26 *2320:A1 *772:10 7.93499e-06
27 *2320:A1 *772:14 6.75716e-06
28 *2320:A2 *772:14 7.72537e-06
29 *2396:A *1659:B1 0
30 *2422:A *772:14 2.52965e-06
31 *199:12 *1659:B1 3.55154e-06
32 *199:16 *1659:B1 3.02372e-05
33 *199:16 *1660:B1 2.96955e-05
34 *236:12 *772:14 1.52186e-05
35 *535:6 *2306:B1 2.25683e-05
36 *535:6 *772:10 0
37 *647:48 *772:10 0
38 *647:48 *772:14 0
39 *647:63 *772:14 0
40 *715:8 *772:14 0
41 *715:10 *2306:B1 0
42 *751:12 *1659:B1 8.75903e-06
43 *751:12 *1660:B1 6.50581e-06
44 *771:14 *1660:B1 2.16072e-07
*RES
1 *1658:ZN *772:4 5 
2 *772:4 *772:10 16.4286 
3 *772:10 *772:14 44.6429 
4 *772:14 *1660:B1 12.3571 
5 *772:14 *1659:B1 13.9643 
6 *772:4 *2306:B1 10.1786 
*END

*D_NET *773 0.000122387
*CONN
*I *1660:A I *D AOI21_X1
*I *1659:ZN O *D OAI21_X1
*CAP
1 *1660:A 2.97046e-05
2 *1659:ZN 2.97046e-05
3 *1512:A *1660:A 0
4 *1599:A2 *1660:A 1.72426e-05
5 *1660:B1 *1660:A 2.39679e-06
6 *199:12 *1660:A 6.48216e-07
7 *199:16 *1660:A 4.26902e-05
*RES
1 *1659:ZN *1660:A 23.7143 
*END

*D_NET *774 8.09966e-05
*CONN
*I *1661:A2 I *D NOR2_X1
*I *1660:ZN O *D AOI21_X1
*CAP
1 *1661:A2 4.00767e-05
2 *1660:ZN 4.00767e-05
3 *1660:B1 *1661:A2 0
4 *629:38 *1661:A2 0
5 *771:14 *1661:A2 8.43215e-07
6 *772:14 *1661:A2 0
*RES
1 *1660:ZN *1661:A2 14.2143 
*END

*D_NET *775 0.00269124
*CONN
*I *1666:A1 I *D NAND2_X2
*I *1661:ZN O *D NOR2_X1
*CAP
1 *1666:A1 3.88849e-05
2 *1661:ZN 3.90101e-05
3 *775:14 0.000618107
4 *775:12 0.000618232
5 *1666:A1 *1666:A2 7.72792e-06
6 *775:14 *1666:A2 8.72084e-07
7 *775:14 *792:36 0.000191466
8 *1492:B1 *775:14 1.84823e-05
9 *1576:A2 *775:14 8.75903e-06
10 *2392:B *775:14 0
11 *13:38 *775:12 6.42843e-05
12 *13:44 *775:12 8.213e-06
13 *13:44 *775:14 0.000735826
14 *629:38 *775:12 0
15 *630:22 *775:14 0
16 *656:47 *775:14 0
17 *751:12 *775:12 8.96334e-05
18 *751:12 *775:14 6.32162e-05
19 *751:14 *775:14 0.000188527
20 *772:14 *775:12 0
*RES
1 *1661:ZN *775:12 16.75 
2 *775:12 *775:14 85.3215 
3 *775:14 *1666:A1 13.75 
*END

*D_NET *776 0.000245435
*CONN
*I *1663:B1 I *D OAI21_X1
*I *1662:ZN O *D AOI21_X1
*CAP
1 *1663:B1 8.90047e-05
2 *1662:ZN 8.90047e-05
3 *1663:B1 *1684:B2 0
4 *1582:A2 *1663:B1 1.37673e-05
5 *1582:A4 *1663:B1 1.32323e-05
6 *177:14 *1663:B1 2.75346e-06
7 *697:20 *1663:B1 1.34875e-05
8 *735:35 *1663:B1 2.41851e-05
*RES
1 *1662:ZN *1663:B1 29.6429 
*END

*D_NET *777 0.000563749
*CONN
*I *1664:A I *D XOR2_X1
*I *1663:ZN O *D OAI21_X1
*CAP
1 *1664:A 0.000132607
2 *1663:ZN 0.000132607
3 *1497:A1 *1664:A 1.35979e-05
4 *1585:A *1664:A 3.09143e-06
5 *1588:A *1664:A 1.39839e-06
6 *1588:B1 *1664:A 3.23723e-07
7 *1589:A1 *1664:A 1.69265e-05
8 *1589:A2 *1664:A 3.35796e-05
9 *1638:A1 *1664:A 7.66675e-07
10 *1664:B *1664:A 2.94455e-05
11 *612:12 *1664:A 1.39844e-06
12 *735:35 *1664:A 0.000198007
*RES
1 *1663:ZN *1664:A 40.3572 
*END

*D_NET *778 0.000325943
*CONN
*I *1665:A2 I *D NAND2_X1
*I *1664:Z O *D XOR2_X1
*CAP
1 *1665:A2 0.000141106
2 *1664:Z 0.000141106
3 *1500:B1 *1665:A2 0
4 *1639:A *1665:A2 0
5 *1640:A *1665:A2 1.54507e-05
6 *656:47 *1665:A2 1.21774e-06
7 *656:51 *1665:A2 2.22661e-05
8 *735:35 *1665:A2 4.79658e-06
*RES
1 *1664:Z *1665:A2 25.1786 
*END

*D_NET *779 0.000142222
*CONN
*I *1666:A2 I *D NAND2_X2
*I *1665:ZN O *D NAND2_X1
*CAP
1 *1666:A2 5.92779e-05
2 *1665:ZN 5.92779e-05
3 *1666:A2 *1295:10 1.11168e-06
4 *1665:A1 *1666:A2 1.04584e-06
5 *1666:A1 *1666:A2 7.72792e-06
6 *656:47 *1666:A2 1.29083e-05
7 *775:14 *1666:A2 8.72084e-07
*RES
1 *1665:ZN *1666:A2 26.2857 
*END

*D_NET *781 0.00029167
*CONN
*I *1673:A1 I *D NOR2_X1
*I *1669:ZN O *D OAI22_X1
*CAP
1 *1673:A1 0.000121961
2 *1669:ZN 0.000121961
3 *1673:A1 *1672:B2 0
4 *1673:A1 *1673:A2 1.32323e-05
5 *1673:A1 *1675:A 1.39839e-06
6 *1673:A1 *1678:A1 4.79658e-06
7 *1673:A1 *1678:A3 5.31084e-07
8 *1673:A1 *1678:A4 1.57115e-05
9 *1673:A1 *1682:A1 1.60038e-06
10 *1671:A *1673:A1 0
11 *226:17 *1673:A1 0
12 *630:78 *1673:A1 2.75346e-06
13 *642:108 *1673:A1 7.72537e-06
*RES
1 *1669:ZN *1673:A1 23.0357 
*END

*D_NET *782 0.00020926
*CONN
*I *1672:A I *D OAI21_X1
*I *1670:ZN O *D NAND2_X1
*CAP
1 *1672:A 7.92338e-05
2 *1670:ZN 7.92338e-05
3 *1672:A *1672:B2 2.16072e-07
4 *1672:A *1673:A2 2.39679e-06
5 *1670:A1 *1672:A 0
6 *1671:A *1672:A 9.62051e-07
7 *1712:A1 *1672:A 4.72173e-05
*RES
1 *1670:ZN *1672:A 29.6071 
*END

*D_NET *783 9.36645e-05
*CONN
*I *1672:B2 I *D OAI21_X1
*I *1671:ZN O *D XNOR2_X1
*CAP
1 *1672:B2 3.10626e-05
2 *1671:ZN 3.10626e-05
3 *1672:B2 *1673:A2 2.23415e-06
4 *1672:B2 *1675:A 2.3035e-06
5 *1671:A *1672:B2 1.82068e-05
6 *1672:A *1672:B2 2.16072e-07
7 *1673:A1 *1672:B2 0
8 *634:83 *1672:B2 8.57884e-06
*RES
1 *1671:ZN *1672:B2 24.0357 
*END

*D_NET *784 6.33284e-05
*CONN
*I *1673:A2 I *D NOR2_X1
*I *1672:ZN O *D OAI21_X1
*CAP
1 *1673:A2 2.27326e-05
2 *1672:ZN 2.27326e-05
3 *1672:A *1673:A2 2.39679e-06
4 *1672:B2 *1673:A2 2.23415e-06
5 *1673:A1 *1673:A2 1.32323e-05
*RES
1 *1672:ZN *1673:A2 12.8571 
*END

*D_NET *785 0.000127387
*CONN
*I *1678:A1 I *D NAND4_X1
*I *1673:ZN O *D NOR2_X1
*CAP
1 *1678:A1 5.53483e-05
2 *1673:ZN 5.53483e-05
3 *1673:A1 *1678:A1 4.79658e-06
4 *1713:B2 *1678:A1 9.5153e-06
5 *1716:A1 *1678:A1 2.3788e-06
6 *1716:B2 *1678:A1 0
*RES
1 *1673:ZN *1678:A1 26.0357 
*END

*D_NET *786 0.000113459
*CONN
*I *1675:A I *D INV_X1
*I *1674:ZN O *D OAI22_X1
*CAP
1 *1675:A 3.54702e-05
2 *1674:ZN 3.54702e-05
3 *1671:A *1675:A 4.21607e-06
4 *1672:B2 *1675:A 2.3035e-06
5 *1673:A1 *1675:A 1.39839e-06
6 *1674:A1 *1675:A 5.47224e-06
7 *1716:A1 *1675:A 2.52678e-05
8 *1716:B1 *1675:A 3.01743e-06
9 *226:17 *1675:A 8.43215e-07
*RES
1 *1674:ZN *1675:A 24.2143 
*END

*D_NET *787 0.000161533
*CONN
*I *1678:A2 I *D NAND4_X1
*I *1675:ZN O *D INV_X1
*CAP
1 *1678:A2 1.25871e-05
2 *1675:ZN 1.25871e-05
3 *1716:A1 *1678:A2 6.89712e-05
4 *1716:B1 *1678:A2 6.73878e-05
*RES
1 *1675:ZN *1678:A2 23.6429 
*END

*D_NET *788 0.000232763
*CONN
*I *1678:A3 I *D NAND4_X1
*I *1676:ZN O *D NAND2_X1
*CAP
1 *1678:A3 6.17994e-05
2 *1676:ZN 6.17994e-05
3 *1678:A3 *1678:A4 1.19839e-05
4 *1678:A3 *1682:A1 2.43093e-06
5 *1678:A3 *810:18 6.84295e-05
6 *1673:A1 *1678:A3 5.31084e-07
7 *222:24 *1678:A3 2.57883e-05
*RES
1 *1676:ZN *1678:A3 27.5714 
*END

*D_NET *789 0.000186668
*CONN
*I *1678:A4 I *D NAND4_X1
*I *1677:ZN O *D NAND2_X1
*CAP
1 *1678:A4 3.62435e-05
2 *1677:ZN 3.62435e-05
3 *1678:A4 *810:18 4.24423e-05
4 *1673:A1 *1678:A4 1.57115e-05
5 *1678:A3 *1678:A4 1.19839e-05
6 *222:24 *1678:A4 4.18985e-05
7 *226:17 *1678:A4 2.14504e-06
*RES
1 *1677:ZN *1678:A4 25.2857 
*END

*D_NET *790 0.000755292
*CONN
*I *1682:A1 I *D NOR2_X1
*I *1678:ZN O *D NAND4_X1
*CAP
1 *1682:A1 0.000300644
2 *1678:ZN 0.000300644
3 *1682:A1 *1682:A2 2.50618e-05
4 *1682:A1 *1721:B2 9.47198e-06
5 *1682:A1 *792:45 1.9997e-05
6 *1682:A1 *794:10 9.25335e-06
7 *1483:A1 *1682:A1 0
8 *1483:A2 *1682:A1 0
9 *1669:A2 *1682:A1 4.21607e-06
10 *1673:A1 *1682:A1 1.60038e-06
11 *1678:A3 *1682:A1 2.43093e-06
12 *2415:A *1682:A1 3.50707e-05
13 *225:8 *1682:A1 3.76624e-05
14 *630:63 *1682:A1 8.8068e-06
15 *630:78 *1682:A1 4.32144e-07
*RES
1 *1678:ZN *1682:A1 42.8929 
*END

*D_NET *791 9.25179e-05
*CONN
*I *1681:A I *D OAI221_X1
*I *1679:ZN O *D NAND2_X1
*CAP
1 *1681:A 2.98876e-05
2 *1679:ZN 2.98876e-05
3 *1681:A *792:38 1.26998e-05
4 *1681:A *792:45 2.39679e-06
5 *224:31 *1681:A 1.55619e-05
6 *653:43 *1681:A 2.08416e-06
*RES
1 *1679:ZN *1681:A 23.5357 
*END

*D_NET *792 0.00457981
*CONN
*I *1721:B2 I *D OAI21_X1
*I *1689:B2 I *D OAI21_X1
*I *1681:B1 I *D OAI221_X1
*I *2309:A1 I *D OAI22_X1
*I *1680:ZN O *D INV_X1
*CAP
1 *1721:B2 0.000202546
2 *1689:B2 0.000267108
3 *1681:B1 0
4 *2309:A1 4.05306e-05
5 *1680:ZN 0.000268589
6 *792:45 0.000519003
7 *792:38 0.000460312
8 *792:36 0.000465774
9 *792:16 0.000254309
10 *1689:B2 *1689:A 4.65711e-06
11 *1689:B2 *803:22 1.58233e-05
12 *792:45 *1682:A2 1.91498e-06
13 *1466:A *1721:B2 1.83411e-06
14 *1550:B1 *792:38 2.35646e-06
15 *1597:A1 *1689:B2 5.56936e-06
16 *1599:A2 *792:36 0
17 *1625:A1 *792:38 6.04034e-05
18 *1679:A2 *792:38 2.17305e-05
19 *1680:A *792:16 2.39679e-06
20 *1681:A *792:38 1.26998e-05
21 *1681:A *792:45 2.39679e-06
22 *1681:B2 *1721:B2 9.79225e-06
23 *1681:B2 *792:38 2.39679e-06
24 *1681:B2 *792:45 7.88715e-05
25 *1682:A1 *1721:B2 9.47198e-06
26 *1682:A1 *792:45 1.9997e-05
27 *1687:A1 *1689:B2 7.94852e-06
28 *2281:A2 *792:16 6.81173e-05
29 *2309:A2 *2309:A1 2.39679e-06
30 *2311:A2 *2309:A1 2.39679e-06
31 *2419:B *1689:B2 5.20238e-07
32 *2421:B *1721:B2 2.54776e-05
33 *3:38 *1689:B2 8.0593e-05
34 *3:42 *1721:B2 6.82202e-07
35 *3:42 *792:38 2.28501e-05
36 *9:28 *1721:B2 8.13487e-05
37 *16:19 *792:16 0.000258975
38 *164:25 *1689:B2 1.87172e-05
39 *193:12 *792:16 3.51536e-06
40 *193:21 *792:16 2.33842e-05
41 *219:19 *1689:B2 1.86133e-05
42 *219:19 *1721:B2 0.000441574
43 *219:30 *1721:B2 0.000169224
44 *236:12 *792:16 1.02475e-05
45 *642:51 *2309:A1 2.33019e-05
46 *647:63 *2309:A1 2.34839e-05
47 *652:88 *1689:B2 5.02854e-06
48 *653:43 *792:38 8.17926e-05
49 *662:16 *1689:B2 2.84765e-06
50 *664:12 *792:38 0
51 *709:14 *792:16 0.000124161
52 *709:14 *792:36 1.3688e-06
53 *740:8 *792:38 6.44217e-06
54 *751:12 *792:36 0.000130019
55 *751:14 *792:36 2.28288e-05
56 *775:14 *792:36 0.000191466
*RES
1 *1680:ZN *792:16 46.6429 
2 *792:16 *2309:A1 10.75 
3 *1680:ZN *792:36 26.1786 
4 *792:36 *792:38 47.75 
5 *792:38 *1681:B1 5 
6 *792:38 *792:45 7.75 
7 *792:45 *1689:B2 46.5 
8 *792:45 *1721:B2 49.8929 
*END

*D_NET *793 7.42805e-05
*CONN
*I *1682:A2 I *D NOR2_X1
*I *1681:ZN O *D OAI221_X1
*CAP
1 *1682:A2 2.24535e-05
2 *1681:ZN 2.24535e-05
3 *1682:A1 *1682:A2 2.50618e-05
4 *653:43 *1682:A2 2.39679e-06
5 *792:45 *1682:A2 1.91498e-06
*RES
1 *1681:ZN *1682:A2 13.4286 
*END

*D_NET *794 0.00120047
*CONN
*I *1684:A I *D OAI21_X4
*I *1682:ZN O *D NOR2_X1
*CAP
1 *1684:A 6.84078e-06
2 *1682:ZN 2.01609e-05
3 *794:12 0.000384335
4 *794:10 0.000397655
5 *1478:B2 *794:12 0
6 *1479:A *794:12 0
7 *1483:A1 *794:10 3.51536e-06
8 *1682:A1 *794:10 9.25335e-06
9 *2390:A *794:12 0
10 *160:8 *794:12 0
11 *164:25 *794:12 0
12 *171:23 *794:12 0
13 *177:14 *1684:A 0
14 *177:14 *794:12 5.39892e-06
15 *224:40 *794:12 5.62244e-05
16 *224:55 *794:12 0.000313997
17 *240:10 *1684:A 3.09143e-06
*RES
1 *1682:ZN *794:10 12.6786 
2 *794:10 *794:12 45.0357 
3 *794:12 *1684:A 10.75 
*END

*D_NET *795 0.000155703
*CONN
*I *1684:B2 I *D OAI21_X4
*I *1683:ZN O *D XNOR2_X1
*CAP
1 *1684:B2 3.85347e-05
2 *1683:ZN 3.85347e-05
3 *1684:B2 *1294:10 6.89712e-05
4 *1496:B2 *1684:B2 8.26038e-06
5 *1663:B1 *1684:B2 0
6 *1683:A *1684:B2 1.40196e-06
*RES
1 *1683:ZN *1684:B2 25.0714 
*END

*D_NET *797 0.00019091
*CONN
*I *1701:A1 I *D NOR2_X4
*I *1686:ZN O *D NOR2_X2
*CAP
1 *1701:A1 9.20472e-05
2 *1686:ZN 9.20472e-05
3 *1701:A1 *1701:A2 6.81575e-06
*RES
1 *1686:ZN *1701:A1 19.3571 
*END

*D_NET *798 0.000132264
*CONN
*I *1689:A I *D OAI21_X1
*I *1687:ZN O *D NAND2_X1
*CAP
1 *1689:A 4.52498e-05
2 *1687:ZN 4.52498e-05
3 *1687:A1 *1689:A 1.73976e-05
4 *1689:B2 *1689:A 4.65711e-06
5 *3:38 *1689:A 1.97093e-05
*RES
1 *1687:ZN *1689:A 15.6071 
*END

*D_NET *799 9.52285e-05
*CONN
*I *1690:A I *D AOI21_X1
*I *1689:ZN O *D OAI21_X1
*CAP
1 *1690:A 2.85668e-05
2 *1689:ZN 2.85668e-05
3 *1690:A *1700:A1 3.09143e-06
4 *1482:A *1690:A 2.39679e-06
5 *1690:B2 *1690:A 2.16072e-07
6 *3:30 *1690:A 2.82368e-05
7 *222:22 *1690:A 4.15369e-06
*RES
1 *1689:ZN *1690:A 13.75 
*END

*D_NET *800 0.000528374
*CONN
*I *1700:A1 I *D NAND3_X1
*I *1690:ZN O *D AOI21_X1
*CAP
1 *1700:A1 0.000160333
2 *1690:ZN 0.000160333
3 *1700:A1 *1695:A3 1.60038e-06
4 *1700:A1 *1699:A1 0
5 *1700:A1 *1700:A2 1.25189e-05
6 *1481:A *1700:A1 8.63465e-06
7 *1690:A *1700:A1 3.09143e-06
8 *1692:A2 *1700:A1 0
9 *1698:B1 *1700:A1 3.28283e-07
10 *2419:A *1700:A1 3.58272e-05
11 *3:30 *1700:A1 2.7984e-05
12 *9:28 *1700:A1 0
13 *164:10 *1700:A1 7.14654e-06
14 *222:22 *1700:A1 3.65322e-06
15 *224:10 *1700:A1 2.68294e-05
16 *652:88 *1700:A1 1.72426e-05
17 *652:97 *1700:A1 6.28524e-05
*RES
1 *1690:ZN *1700:A1 40.3214 
*END

*D_NET *801 1.82495e-05
*CONN
*I *1695:A1 I *D AND4_X1
*I *1691:ZN O *D OR2_X1
*CAP
1 *1695:A1 9.01641e-06
2 *1691:ZN 9.01641e-06
3 *1695:A1 *1699:A2 0
4 *2385:B *1695:A1 2.16668e-07
*RES
1 *1691:ZN *1695:A1 10.9286 
*END

*D_NET *802 0.000383412
*CONN
*I *1695:A2 I *D AND4_X1
*I *1692:ZN O *D NAND2_X1
*CAP
1 *1695:A2 0.000101157
2 *1692:ZN 0.000101157
3 *1695:A2 *1695:A3 3.01619e-05
4 *1695:A2 *810:18 5.10087e-06
5 *2385:B *1695:A2 3.12121e-06
6 *2:16 *1695:A2 2.5504e-06
7 *2:29 *1695:A2 2.46826e-06
8 *3:30 *1695:A2 9.787e-06
9 *222:22 *1695:A2 0.000125976
10 *647:97 *1695:A2 1.23516e-06
11 *647:110 *1695:A2 6.98723e-07
*RES
1 *1692:ZN *1695:A2 33 
*END

*D_NET *803 0.00110061
*CONN
*I *1695:A3 I *D AND4_X1
*I *1693:ZN O *D NAND2_X1
*CAP
1 *1695:A3 0.000111749
2 *1693:ZN 0.00011509
3 *803:22 0.000226839
4 *1695:A3 *1695:A4 2.16425e-05
5 *1481:A *1695:A3 4.36941e-06
6 *1482:A *803:22 1.72405e-05
7 *1596:A *803:22 1.87369e-06
8 *1689:B2 *803:22 1.58233e-05
9 *1693:A1 *803:22 5.40196e-06
10 *1695:A2 *1695:A3 3.01619e-05
11 *1696:A2 *803:22 4.33476e-05
12 *1698:B1 *1695:A3 1.14281e-05
13 *1700:A1 *1695:A3 1.60038e-06
14 *2385:A *1695:A3 8.41227e-05
15 *2385:A *803:22 0.000130761
16 *3:30 *1695:A3 3.2449e-05
17 *3:38 *803:22 4.21285e-05
18 *10:43 *1695:A3 6.56533e-06
19 *155:12 *803:22 4.21998e-05
20 *222:22 *1695:A3 2.14856e-06
21 *230:12 *803:22 5.81102e-06
22 *652:97 *803:22 6.88076e-05
23 *662:16 *803:22 7.90453e-05
*RES
1 *1693:ZN *803:22 45.7857 
2 *803:22 *1695:A3 21.1071 
*END

*D_NET *804 0.000377421
*CONN
*I *1695:A4 I *D AND4_X1
*I *1694:ZN O *D NAND2_X1
*CAP
1 *1695:A4 9.58852e-05
2 *1694:ZN 9.58852e-05
3 *1481:A *1695:A4 5.89574e-05
4 *1694:A1 *1695:A4 2.39679e-06
5 *1695:A3 *1695:A4 2.16425e-05
6 *1698:B1 *1695:A4 2.16425e-05
7 *2385:B *1695:A4 9.02464e-06
8 *3:30 *1695:A4 0
9 *222:22 *1695:A4 4.77458e-05
10 *644:92 *1695:A4 2.42414e-05
*RES
1 *1694:ZN *1695:A4 32.8214 
*END

*D_NET *805 6.55802e-05
*CONN
*I *1700:A2 I *D NAND3_X1
*I *1695:ZN O *D AND4_X1
*CAP
1 *1700:A2 2.42058e-05
2 *1695:ZN 2.42058e-05
3 *1700:A2 *1700:A3 2.39679e-06
4 *1698:B1 *1700:A2 2.25279e-06
5 *1700:A1 *1700:A2 1.25189e-05
*RES
1 *1695:ZN *1700:A2 12.8571 
*END

*D_NET *806 0.000458337
*CONN
*I *1699:A1 I *D NOR2_X1
*I *1696:ZN O *D OAI22_X1
*CAP
1 *1699:A1 0.00018538
2 *1696:ZN 0.00018538
3 *1699:A1 *1699:A2 8.43215e-07
4 *1699:A1 *1700:A3 1.21774e-06
5 *1692:A2 *1699:A1 4.29935e-05
6 *1698:B1 *1699:A1 0
7 *1698:B2 *1699:A1 3.1184e-05
8 *1700:A1 *1699:A1 0
9 *222:22 *1699:A1 1.13395e-05
10 *228:8 *1699:A1 0
11 *662:16 *1699:A1 0
*RES
1 *1696:ZN *1699:A1 39.75 
*END

*D_NET *807 0.000124985
*CONN
*I *1698:A I *D OAI21_X1
*I *1697:ZN O *D NAND2_X1
*CAP
1 *1698:A 3.08272e-05
2 *1697:ZN 3.08272e-05
3 *1698:B1 *1698:A 2.39679e-06
4 *1698:B2 *1698:A 4.24039e-05
5 *637:85 *1698:A 6.30856e-06
6 *637:96 *1698:A 1.22216e-05
*RES
1 *1697:ZN *1698:A 24.3929 
*END

*D_NET *808 0.000125804
*CONN
*I *1699:A2 I *D NOR2_X1
*I *1698:ZN O *D OAI21_X1
*CAP
1 *1699:A2 5.81233e-05
2 *1698:ZN 5.81233e-05
3 *1699:A2 *1700:A3 6.38328e-07
4 *1695:A1 *1699:A2 0
5 *1698:B1 *1699:A2 5.92698e-06
6 *1699:A1 *1699:A2 8.43215e-07
7 *637:96 *1699:A2 2.14856e-06
*RES
1 *1698:ZN *1699:A2 17.0714 
*END

*D_NET *809 0.000120389
*CONN
*I *1700:A3 I *D NAND3_X1
*I *1699:ZN O *D NOR2_X1
*CAP
1 *1700:A3 4.76848e-05
2 *1699:ZN 4.76848e-05
3 *1698:B1 *1700:A3 2.07669e-05
4 *1699:A1 *1700:A3 1.21774e-06
5 *1699:A2 *1700:A3 6.38328e-07
6 *1700:A2 *1700:A3 2.39679e-06
*RES
1 *1699:ZN *1700:A3 15.6786 
*END

*D_NET *810 0.00224116
*CONN
*I *1701:A2 I *D NOR2_X4
*I *1700:ZN O *D NAND3_X1
*CAP
1 *1701:A2 2.08304e-05
2 *1700:ZN 0.000171961
3 *810:20 0.000477722
4 *810:18 0.000628852
5 *810:20 *1711:A2 1.22827e-05
6 *810:20 *1718:A2 5.94174e-07
7 *810:20 *1718:A3 1.42931e-06
8 *810:20 *819:8 4.12911e-06
9 *1669:B2 *810:18 2.04127e-06
10 *1678:A3 *810:18 6.84295e-05
11 *1678:A4 *810:18 4.24423e-05
12 *1695:A2 *810:18 5.10087e-06
13 *1701:A1 *1701:A2 6.81575e-06
14 *1710:A *810:20 2.08287e-05
15 *1712:A2 *810:20 9.13412e-05
16 *1715:A1 *810:20 1.39581e-05
17 *1715:A2 *810:20 1.41532e-05
18 *1716:A2 *810:20 2.08098e-06
19 *2:59 *810:20 0
20 *222:22 *810:18 5.62244e-05
21 *222:24 *810:18 0.000335038
22 *222:24 *810:20 2.2331e-05
23 *630:78 *810:20 5.39412e-06
24 *634:72 *810:18 5.48932e-05
25 *642:108 *810:18 4.79963e-05
26 *642:108 *810:20 0.000100081
27 *644:98 *810:18 2.01369e-05
28 *647:110 *810:18 1.40681e-05
*RES
1 *1700:ZN *810:18 41.5 
2 *810:18 *810:20 60.6429 
3 *810:20 *1701:A2 12.25 
*END

*D_NET *811 0.015223
*CONN
*I *1982:B1 I *D OAI21_X1
*I *2155:B1 I *D OAI21_X1
*I *2118:B1 I *D OAI21_X1
*I *2193:B1 I *D OAI21_X1
*I *1703:A I *D INV_X1
*I *2249:B1 I *D OAI21_X1
*I *2211:B1 I *D OAI21_X1
*I *2230:B1 I *D OAI21_X1
*I *2060:B1 I *D OAI21_X1
*I *2098:B1 I *D OAI21_X1
*I *2042:B1 I *D OAI21_X1
*I *2079:B1 I *D OAI21_X1
*I *2174:B1 I *D OAI21_X1
*I *2136:B1 I *D OAI21_X1
*I *2022:B1 I *D OAI21_X1
*I *1966:B1 I *D OAI21_X1
*I *2002:B1 I *D OAI21_X1
*I *1701:ZN O *D NOR2_X4
*CAP
1 *1982:B1 6.36225e-06
2 *2155:B1 6.94044e-06
3 *2118:B1 0.000209671
4 *2193:B1 8.71307e-06
5 *1703:A 0.000369229
6 *2249:B1 0
7 *2211:B1 6.29605e-06
8 *2230:B1 0.000164951
9 *2060:B1 0.000107951
10 *2098:B1 3.23613e-05
11 *2042:B1 0.000236102
12 *2079:B1 5.84071e-05
13 *2174:B1 0
14 *2136:B1 1.57257e-05
15 *2022:B1 1.22293e-05
16 *1966:B1 0
17 *2002:B1 0.000171117
18 *1701:ZN 0.000267754
19 *811:185 0.000512519
20 *811:170 0.000410735
21 *811:151 0.000575239
22 *811:145 0.000157852
23 *811:143 0.000262975
24 *811:121 0.000297432
25 *811:115 0.00044875
26 *811:104 0.000322271
27 *811:91 0.000278492
28 *811:82 0.000188177
29 *811:78 0.000269985
30 *811:63 0.000414337
31 *811:61 0.00046203
32 *811:55 0.000383185
33 *811:40 0.000583924
34 *811:34 0.000500376
35 *811:25 0.00024918
36 *811:12 0.000301886
37 *811:10 0.000349781
38 *1703:A *1296:6 0
39 *1982:B1 *1982:A 1.32323e-05
40 *1982:B1 *1309:92 2.86475e-06
41 *2002:B1 *2002:B2 3.02372e-05
42 *2022:B1 *2021:A1 1.1315e-05
43 *2022:B1 *2022:A 1.80284e-05
44 *2022:B1 *1077:76 8.43215e-07
45 *2042:B1 *1905:A2 3.03571e-05
46 *2042:B1 *1906:A1 2.39679e-06
47 *2042:B1 *1913:A3 1.83058e-06
48 *2042:B1 *2042:B2 4.21607e-06
49 *2060:B1 *1426:CK 2.69389e-05
50 *2060:B1 *2060:A 2.39679e-06
51 *2060:B1 *1090:63 0
52 *2079:B1 *1903:B1 0
53 *2079:B1 *2079:B2 7.72537e-06
54 *2079:B1 *1317:34 7.19036e-06
55 *2079:B1 *1317:41 2.39679e-06
56 *2098:B1 *1426:CK 1.56074e-06
57 *2098:B1 *1442:CK 7.15237e-06
58 *2118:B1 *1349:CK 2.84174e-05
59 *2118:B1 *1450:CK 3.51536e-06
60 *2118:B1 *1453:CK 3.13376e-06
61 *2118:B1 *1311:62 0
62 *2230:B1 *1893:A2 4.62481e-06
63 *2230:B1 *1893:B2 3.81799e-05
64 *811:12 *1042:55 4.33107e-05
65 *811:25 *1966:A 2.39679e-06
66 *811:25 *1042:55 2.36711e-05
67 *811:34 *1966:A 7.72792e-06
68 *811:34 *1309:81 7.72792e-06
69 *811:34 *1309:92 0.000204584
70 *811:40 *1816:A1 4.55191e-06
71 *811:40 *1899:A1 0
72 *811:40 *1982:A 2.75346e-06
73 *811:40 *837:525 3.50653e-05
74 *811:55 *1816:A1 3.21899e-05
75 *811:63 *1911:B1 1.64551e-05
76 *811:78 *1354:CK 0
77 *811:78 *1911:B1 0
78 *811:78 *1911:B2 3.57461e-05
79 *811:78 *1912:A1 3.77715e-05
80 *811:78 *998:12 0.000632538
81 *811:82 *922:24 0
82 *811:91 *1353:CK 0.000347794
83 *811:91 *922:24 0
84 *811:91 *934:10 1.60637e-05
85 *811:91 *1317:19 1.66988e-05
86 *811:104 *934:10 4.36651e-06
87 *811:104 *992:12 1.084e-05
88 *811:104 *1317:19 0.000243492
89 *811:115 *1317:19 0.00012712
90 *811:121 *1905:A2 0
91 *811:121 *1905:B2 0
92 *811:121 *1113:61 0.000159722
93 *811:121 *1316:109 2.77515e-05
94 *811:121 *1317:17 8.77996e-06
95 *811:143 *1827:A1 0
96 *811:143 *1827:A2 4.50059e-05
97 *811:143 *1894:A2 0.000132074
98 *811:143 *915:12 0
99 *811:143 *991:8 0.000726667
100 *811:143 *1317:19 3.81944e-05
101 *811:151 *1890:B1 1.43437e-05
102 *811:151 *991:8 4.84191e-05
103 *811:151 *1303:551 1.93198e-05
104 *811:170 *1814:B2 6.80758e-06
105 *811:170 *1890:B1 9.21601e-06
106 *811:170 *1893:A2 0
107 *811:170 *1893:B2 5.94783e-07
108 *811:170 *837:305 1.65458e-05
109 *811:170 *837:316 3.65672e-06
110 *811:170 *837:325 2.14856e-06
111 *811:170 *991:8 2.61814e-06
112 *1333:D *2042:B1 0
113 *1338:D *811:34 0
114 *1354:D *811:82 0
115 *1362:D *811:143 2.57857e-05
116 *1373:D *811:185 1.50816e-05
117 *1386:D *1703:A 4.87268e-05
118 *1394:D *811:34 0
119 *1426:D *2060:B1 0
120 *1461:D *811:63 0
121 *1643:A *1703:A 4.81535e-05
122 *1813:A2 *811:170 8.09887e-05
123 *1813:A2 *811:185 1.9254e-05
124 *1816:A2 *811:55 1.39834e-05
125 *1890:A *811:170 8.7171e-07
126 *1890:B2 *2230:B1 8.32497e-05
127 *1890:B2 *811:170 0
128 *1895:A2 *811:40 1.20065e-06
129 *1901:B2 *2060:B1 1.55241e-05
130 *1902:A2 *2042:B1 1.85225e-05
131 *1903:A *811:104 0.000119077
132 *1903:A *811:115 3.67084e-05
133 *1904:A2 *811:121 0
134 *1908:A2 *2118:B1 0
135 *1909:A *811:63 1.27666e-06
136 *1909:B2 *2118:B1 7.19036e-06
137 *1909:B2 *811:61 6.44316e-05
138 *1909:B2 *811:63 0.000102778
139 *1965:A2 *811:34 0
140 *1974:A1 *811:40 4.92317e-06
141 *1975:B1 *811:40 3.02351e-05
142 *1982:B2 *811:40 1.25431e-05
143 *2059:A2 *2060:B1 2.34839e-05
144 *2079:A *2079:B1 5.34233e-06
145 *2097:A2 *811:121 8.62199e-06
146 *2098:B2 *2098:B1 5.35569e-05
147 *2118:A *2118:B1 1.32323e-05
148 *2118:B2 *2118:B1 6.49787e-06
149 *2129:B1 *811:63 0
150 *2136:A *2136:B1 1.25189e-05
151 *2136:B2 *2136:B1 3.09143e-06
152 *2147:A *2118:B1 0
153 *2154:A2 *811:61 0.000250107
154 *2155:A *2155:B1 2.75346e-06
155 *2155:B2 *2155:B1 1.21774e-06
156 *2155:B2 *811:61 1.9777e-05
157 *2192:A1 *811:151 4.31937e-06
158 *2192:A2 *811:151 2.16072e-07
159 *2204:B1 *1703:A 2.71785e-05
160 *2204:B1 *811:185 2.02659e-05
161 *2210:A2 *2211:B1 0
162 *2211:A *2211:B1 7.19036e-06
163 *2211:A *811:170 4.32298e-05
164 *2211:A *811:185 1.66988e-05
165 *2230:A *2230:B1 1.32348e-05
166 *2249:A *1703:A 2.75346e-06
167 *2249:A *811:185 1.32348e-05
168 *114:6 *2079:B1 0
169 *146:12 *2042:B1 0
170 *151:6 *2079:B1 1.79569e-05
171 *378:78 *2060:B1 0.000203907
172 *378:78 *2098:B1 2.94113e-05
173 *414:51 *2155:B1 0
174 *414:51 *811:55 0
175 *426:55 *811:78 2.39679e-06
176 *426:64 *811:78 5.53316e-05
177 *438:50 *2193:B1 0
178 *438:50 *811:151 3.30767e-05
179 *438:61 *2193:B1 0
180 *438:61 *811:151 2.39679e-06
181 *450:63 *2211:B1 7.16188e-07
182 *450:74 *811:170 3.02351e-05
183 *450:74 *811:185 0.000102128
184 *473:36 *811:185 2.6518e-05
185 *473:46 *1703:A 6.38328e-07
186 *473:46 *811:185 6.38328e-07
187 *595:166 *811:115 7.89435e-06
188 *595:189 *811:115 3.22731e-05
189 *595:189 *811:143 0.000119434
190 *595:213 *2230:B1 4.42146e-05
191 *634:176 *811:40 6.75329e-05
192 *756:20 *2002:B1 8.84024e-05
193 *756:54 *811:40 0.000407443
194 *756:54 *811:55 0.00023657
195 *756:69 *811:55 0.00033653
196 *756:73 *811:61 7.21062e-05
*RES
1 *1701:ZN *811:10 45.1072 
2 *811:10 *811:12 9.75 
3 *811:12 *2002:B1 36.9643 
4 *811:12 *811:25 5.75 
5 *811:25 *1966:B1 5 
6 *811:25 *811:34 25.3572 
7 *811:34 *811:40 48.75 
8 *811:40 *2022:B1 11.75 
9 *811:40 *811:55 46.3572 
10 *811:55 *811:61 29.25 
11 *811:61 *811:63 18.25 
12 *811:63 *2136:B1 6.75 
13 *811:63 *811:78 49.75 
14 *811:78 *811:82 7.28572 
15 *811:82 *2174:B1 10 
16 *811:82 *811:91 23.3214 
17 *811:91 *2079:B1 16.6786 
18 *811:91 *811:104 13.1429 
19 *811:104 *2042:B1 34.75 
20 *811:104 *811:115 7.03572 
21 *811:115 *811:121 30.25 
22 *811:121 *2098:B1 14.3214 
23 *811:121 *2060:B1 26.8571 
24 *811:115 *811:143 51.1429 
25 *811:143 *811:145 5 
26 *811:145 *811:151 24.1072 
27 *811:151 *2230:B1 32.75 
28 *811:151 *811:170 41.6786 
29 *811:170 *2211:B1 10.75 
30 *811:170 *811:185 24.9286 
31 *811:185 *2249:B1 5 
32 *811:185 *1703:A 47.6072 
33 *811:145 *2193:B1 5.92857 
34 *811:61 *2118:B1 37.7857 
35 *811:55 *2155:B1 5.75 
36 *811:34 *1982:B1 6.25 
*END

*D_NET *813 0.000876159
*CONN
*I *1705:A2 I *D NAND3_X1
*I *2308:B1 I *D OAI21_X1
*I *2307:B2 I *D AOI21_X1
*I *1704:ZN O *D INV_X1
*CAP
1 *1705:A2 6.37637e-05
2 *2308:B1 0
3 *2307:B2 2.08121e-05
4 *1704:ZN 2.10383e-05
5 *813:16 0.000152958
6 *813:8 0.000216948
7 *2307:B1 *2307:B2 1.10138e-05
8 *2308:A *2307:B2 6.63802e-06
9 *2308:A *813:16 1.32981e-05
10 *2308:B2 *2307:B2 1.45936e-05
11 *2312:B2 *1705:A2 3.95459e-06
12 *2312:B2 *813:8 3.283e-05
13 *2320:A1 *813:16 8.53685e-05
14 *2320:A2 *813:16 3.19164e-07
15 *235:8 *1705:A2 0
16 *677:31 *1705:A2 0.000133528
17 *677:31 *813:8 9.43162e-05
18 *715:8 *813:16 0
19 *715:10 *813:16 0
20 *772:10 *813:16 4.77974e-06
21 *772:14 *1705:A2 0
22 *772:14 *813:16 0
*RES
1 *1704:ZN *813:8 15 
2 *813:8 *813:16 20.9286 
3 *813:16 *2307:B2 8.85714 
4 *813:16 *2308:B1 5 
5 *813:8 *1705:A2 28.5357 
*END

*D_NET *814 0.00172967
*CONN
*I *1706:A1 I *D NOR4_X1
*I *1705:ZN O *D NAND3_X1
*CAP
1 *1706:A1 2.09165e-05
2 *1705:ZN 0.000714733
3 *814:16 0.00073565
4 *1546:A *814:16 6.72989e-06
5 *1546:B1 *1706:A1 2.70412e-05
6 *1705:A1 *814:16 8.99167e-06
7 *2312:B2 *814:16 5.11191e-06
8 *3:44 *814:16 1.76034e-06
9 *634:62 *1706:A1 9.47198e-06
10 *677:31 *814:16 2.10217e-05
11 *688:32 *814:16 0.000178244
12 *714:12 *814:16 0
*RES
1 *1705:ZN *814:16 49.2057 
2 *814:16 *1706:A1 12.75 
*END

*D_NET *815 0.000917426
*CONN
*I *1707:A1 I *D NAND3_X1
*I *1706:ZN O *D NOR4_X1
*CAP
1 *1707:A1 0
2 *1706:ZN 0
3 *815:12 0.00035988
4 *815:6 0.00035988
5 *815:12 *833:10 0
6 *1575:A3 *815:12 2.89018e-05
7 *1706:A3 *815:12 0.000116001
8 *1707:A2 *815:12 3.48838e-06
9 *1707:A3 *815:12 1.21774e-06
10 *3:66 *815:12 4.80562e-05
*RES
1 *1706:ZN *815:6 10 
2 *815:6 *815:12 49.0714 
3 *815:12 *1707:A1 5 
*END

*D_NET *816 0.000543937
*CONN
*I *1709:A1 I *D NAND2_X1
*I *1707:ZN O *D NAND3_X1
*CAP
1 *1709:A1 0.000186702
2 *1707:ZN 0.000186702
3 *1709:A1 *1709:A2 1.19839e-05
4 *1709:A1 *1949:A1 0.000118932
5 *1709:A1 *833:10 2.25683e-05
6 *1478:A *1709:A1 7.30645e-06
7 *2424:A *1709:A1 0
8 *600:72 *1709:A1 9.74193e-06
*RES
1 *1707:ZN *1709:A1 32.6429 
*END

*D_NET *817 0.000405182
*CONN
*I *1709:A2 I *D NAND2_X1
*I *1708:ZN O *D NAND2_X1
*CAP
1 *1709:A2 8.29862e-05
2 *1708:ZN 8.29862e-05
3 *1709:A2 *1949:A1 1.08036e-06
4 *1478:B2 *1709:A2 0
5 *1709:A1 *1709:A2 1.19839e-05
6 *1949:A3 *1709:A2 1.79373e-05
7 *160:8 *1709:A2 0
8 *219:19 *1709:A2 8.11762e-05
9 *219:30 *1709:A2 0.000127032
*RES
1 *1708:ZN *1709:A2 32.3571 
*END

*D_NET *818 0.000264428
*CONN
*I *1722:A1 I *D NOR3_X2
*I *1709:ZN O *D NAND2_X1
*CAP
1 *1722:A1 0.000117151
2 *1709:ZN 0.000117151
3 *1722:A1 *1722:A2 8.43215e-07
4 *2:59 *1722:A1 0
5 *155:10 *1722:A1 2.92828e-05
6 *220:10 *1722:A1 0
*RES
1 *1709:ZN *1722:A1 21.4643 
*END

*D_NET *819 0.000326506
*CONN
*I *1711:A2 I *D OAI22_X1
*I *1713:B1 I *D OAI21_X1
*I *1710:ZN O *D INV_X1
*CAP
1 *1711:A2 2.8337e-05
2 *1713:B1 7.0926e-05
3 *1710:ZN 5.25572e-06
4 *819:8 0.000104519
5 *1711:A2 *1718:A3 6.52475e-06
6 *1713:B1 *1713:A 2.75346e-06
7 *1713:B1 *1714:A1 1.37289e-05
8 *1713:B1 *1714:A2 2.70833e-06
9 *819:8 *1718:A3 6.32202e-06
10 *1712:A1 *1713:B1 0
11 *1715:A2 *1711:A2 5.41015e-05
12 *220:10 *1713:B1 7.72792e-06
13 *221:25 *1713:B1 0
14 *630:78 *1711:A2 7.19036e-06
15 *810:20 *1711:A2 1.22827e-05
16 *810:20 *819:8 4.12911e-06
*RES
1 *1710:ZN *819:8 10.9286 
2 *819:8 *1713:B1 18.1071 
3 *819:8 *1711:A2 14.3929 
*END

*D_NET *820 0.000172719
*CONN
*I *1714:A1 I *D NOR2_X1
*I *1711:ZN O *D OAI22_X1
*CAP
1 *1714:A1 7.54087e-05
2 *1711:ZN 7.54087e-05
3 *1714:A1 *1713:A 7.66675e-07
4 *1714:A1 *1714:A2 1.21774e-06
5 *1714:A1 *1718:A1 0
6 *1714:A1 *1718:A2 9.62051e-07
7 *1714:A1 *1718:A3 4.32144e-07
8 *1713:B1 *1714:A1 1.37289e-05
9 *630:78 *1714:A1 2.39679e-06
10 *642:108 *1714:A1 2.39679e-06
*RES
1 *1711:ZN *1714:A1 28.2857 
*END

*D_NET *821 0.00037321
*CONN
*I *1713:A I *D OAI21_X1
*I *1712:ZN O *D NAND2_X1
*CAP
1 *1713:A 9.74312e-05
2 *1712:ZN 9.74312e-05
3 *1713:A *1714:A2 7.72537e-06
4 *1712:A1 *1713:A 4.67278e-05
5 *1713:B1 *1713:A 2.75346e-06
6 *1713:B2 *1713:A 0.000120374
7 *1714:A1 *1713:A 7.66675e-07
*RES
1 *1712:ZN *1713:A 33.3929 
*END

*D_NET *822 8.60263e-05
*CONN
*I *1714:A2 I *D NOR2_X1
*I *1713:ZN O *D OAI21_X1
*CAP
1 *1714:A2 3.71875e-05
2 *1713:ZN 3.71875e-05
3 *1712:A1 *1714:A2 0
4 *1713:A *1714:A2 7.72537e-06
5 *1713:B1 *1714:A2 2.70833e-06
6 *1714:A1 *1714:A2 1.21774e-06
*RES
1 *1713:ZN *1714:A2 15.0357 
*END

*D_NET *823 0.000117619
*CONN
*I *1718:A1 I *D NAND3_X1
*I *1714:ZN O *D NOR2_X1
*CAP
1 *1718:A1 5.23517e-05
2 *1714:ZN 5.23517e-05
3 *1718:A1 *1718:A2 1.26998e-05
4 *1718:A1 *1722:A2 0
5 *1714:A1 *1718:A1 0
6 *1715:A1 *1718:A1 2.16072e-07
*RES
1 *1714:ZN *1718:A1 15.3571 
*END

*D_NET *824 0.000103133
*CONN
*I *1718:A2 I *D NAND3_X1
*I *1715:ZN O *D NAND2_X1
*CAP
1 *1718:A2 3.30608e-05
2 *1715:ZN 3.30608e-05
3 *1718:A2 *1718:A3 7.19036e-06
4 *1714:A1 *1718:A2 9.62051e-07
5 *1715:A2 *1718:A2 1.55645e-05
6 *1718:A1 *1718:A2 1.26998e-05
7 *810:20 *1718:A2 5.94174e-07
*RES
1 *1715:ZN *1718:A2 24.2143 
*END

*D_NET *825 0.000239093
*CONN
*I *1717:A I *D INV_X1
*I *1716:ZN O *D OAI22_X1
*CAP
1 *1717:A 7.76517e-05
2 *1716:ZN 7.76517e-05
3 *1712:A1 *1717:A 1.28122e-06
4 *1712:A2 *1717:A 2.74896e-06
5 *1716:A1 *1717:A 1.72063e-05
6 *1716:A2 *1717:A 6.2553e-05
*RES
1 *1716:ZN *1717:A 31 
*END

*D_NET *826 0.000386245
*CONN
*I *1718:A3 I *D NAND3_X1
*I *1717:ZN O *D INV_X1
*CAP
1 *1718:A3 8.74865e-05
2 *1717:ZN 8.74865e-05
3 *1710:A *1718:A3 9.44188e-05
4 *1711:A2 *1718:A3 6.52475e-06
5 *1714:A1 *1718:A3 4.32144e-07
6 *1715:A2 *1718:A3 6.55107e-05
7 *1716:A2 *1718:A3 2.94435e-05
8 *1718:A2 *1718:A3 7.19036e-06
9 *810:20 *1718:A3 1.42931e-06
10 *819:8 *1718:A3 6.32202e-06
*RES
1 *1717:ZN *1718:A3 32.5357 
*END

*D_NET *827 0.000233423
*CONN
*I *1722:A2 I *D NOR3_X2
*I *1718:ZN O *D NAND3_X1
*CAP
1 *1722:A2 0.000100617
2 *1718:ZN 0.000100617
3 *1688:A *1722:A2 1.26998e-05
4 *1715:A1 *1722:A2 5.86335e-06
5 *1718:A1 *1722:A2 0
6 *1722:A1 *1722:A2 8.43215e-07
7 *2:59 *1722:A2 1.59582e-06
8 *155:10 *1722:A2 7.66204e-06
9 *220:10 *1722:A2 0
10 *630:78 *1722:A2 3.52448e-06
*RES
1 *1718:ZN *1722:A2 20.6071 
*END

*D_NET *828 7.74953e-05
*CONN
*I *1721:A I *D OAI21_X1
*I *1719:ZN O *D NAND2_X1
*CAP
1 *1721:A 1.32226e-05
2 *1719:ZN 1.32226e-05
3 *1721:B1 *1721:A 2.75346e-06
4 *2421:A *1721:A 1.11258e-05
5 *2421:B *1721:A 2.94455e-05
6 *2424:A *1721:A 2.75346e-06
7 *2:59 *1721:A 4.97191e-06
*RES
1 *1719:ZN *1721:A 22.3571 
*END

*D_NET *829 0.000272569
*CONN
*I *1722:A3 I *D NOR3_X2
*I *1721:ZN O *D OAI21_X1
*CAP
1 *1722:A3 7.85726e-05
2 *1721:ZN 7.85726e-05
3 *1723:A2 *1722:A3 1.34605e-05
4 *2384:A *1722:A3 0
5 *2421:B *1722:A3 1.62377e-05
6 *2:59 *1722:A3 8.57252e-05
7 *155:12 *1722:A3 0
*RES
1 *1721:ZN *1722:A3 30.5357 
*END

*D_NET *830 0.000677892
*CONN
*I *1724:A1 I *D NAND2_X4
*I *1722:ZN O *D NOR3_X2
*CAP
1 *1724:A1 0
2 *1722:ZN 0.00026044
3 *830:10 0.00026044
4 *1686:A1 *830:10 0.000133405
5 *2384:A *830:10 2.0472e-05
6 *2:44 *830:10 0
7 *2:59 *830:10 0
8 *155:12 *830:10 3.13512e-06
*RES
1 *1722:ZN *830:10 45.1072 
2 *830:10 *1724:A1 5 
*END

*D_NET *831 0.000102079
*CONN
*I *1724:A2 I *D NAND2_X4
*I *1723:ZN O *D OR2_X4
*CAP
1 *1724:A2 5.10396e-05
2 *1723:ZN 5.10396e-05
3 *1686:A1 *1724:A2 0
4 *1686:A2 *1724:A2 0
5 *2384:A *1724:A2 0
*RES
1 *1723:ZN *1724:A2 14.6786 
*END

*D_NET *833 0.00219191
*CONN
*I *1949:A1 I *D NAND3_X1
*I *1731:A I *D OAI21_X1
*I *2284:A2 I *D NAND2_X1
*I *2286:A3 I *D NAND3_X1
*I *1729:ZN O *D INV_X1
*CAP
1 *1949:A1 0.000104826
2 *1731:A 0
3 *2284:A2 0
4 *2286:A3 5.35243e-05
5 *1729:ZN 0.000170457
6 *833:28 0.000345591
7 *833:22 0.000495878
8 *833:10 0.000269442
9 *833:10 *1732:A 1.21774e-06
10 *833:22 *1731:B1 7.85526e-06
11 *833:22 *1732:A 1.42736e-05
12 *1478:A *1949:A1 9.39597e-05
13 *1492:A *833:28 1.96315e-05
14 *1492:B1 *833:28 7.72792e-06
15 *1492:B2 *833:28 3.32229e-05
16 *1575:A1 *833:22 2.61219e-06
17 *1576:A1 *833:28 0
18 *1577:B *2286:A3 6.0406e-05
19 *1577:B *833:28 1.84013e-05
20 *1578:B1 *833:28 2.35328e-05
21 *1707:A3 *833:10 4.51078e-06
22 *1709:A1 *1949:A1 0.000118932
23 *1709:A1 *833:10 2.25683e-05
24 *1709:A2 *1949:A1 1.08036e-06
25 *1731:B2 *833:22 7.26631e-05
26 *1949:A2 *1949:A1 2.69786e-05
27 *2286:A1 *2286:A3 9.26943e-06
28 *2286:A1 *833:28 1.21774e-06
29 *2286:A2 *2286:A3 2.39679e-06
30 *2382:B *833:28 0
31 *2383:B1 *833:28 2.83434e-06
32 *2392:B *833:28 0
33 *2395:B *833:28 1.98677e-05
34 *512:14 *833:28 1.87369e-06
35 *600:61 *833:22 0
36 *600:72 *833:10 7.63428e-05
37 *600:72 *833:22 8.75488e-06
38 *603:6 *833:28 6.22967e-06
39 *603:10 *833:28 3.78684e-05
40 *603:53 *833:22 0
41 *603:64 *833:22 2.81725e-05
42 *692:8 *833:22 2.77855e-05
43 *692:8 *833:28 0
44 *815:12 *833:10 0
*RES
1 *1729:ZN *833:10 14.4286 
2 *833:10 *833:22 35.4643 
3 *833:22 *833:28 34.4286 
4 *833:28 *2286:A3 12.3571 
5 *833:28 *2284:A2 5 
6 *833:10 *1731:A 5 
7 *1729:ZN *1949:A1 25.7857 
*END

*D_NET *834 0.000165038
*CONN
*I *1731:B1 I *D OAI21_X1
*I *1730:ZN O *D XNOR2_X1
*CAP
1 *1731:B1 5.31954e-05
2 *1730:ZN 5.31954e-05
3 *1731:B1 *1732:A 1.11168e-06
4 *1731:B2 *1731:B1 2.39679e-06
5 *3:66 *1731:B1 0
6 *600:72 *1731:B1 7.66204e-06
7 *603:64 *1731:B1 3.96215e-05
8 *833:22 *1731:B1 7.85526e-06
*RES
1 *1730:ZN *1731:B1 26.7143 
*END

*D_NET *835 9.28124e-05
*CONN
*I *1732:A I *D INV_X1
*I *1731:ZN O *D OAI21_X1
*CAP
1 *1732:A 3.81047e-05
2 *1731:ZN 3.81047e-05
3 *1731:B1 *1732:A 1.11168e-06
4 *833:10 *1732:A 1.21774e-06
5 *833:22 *1732:A 1.42736e-05
*RES
1 *1731:ZN *1732:A 24.0357 
*END

*D_NET *837 0.0275581
*CONN
*I *1882:A1 I *D NOR2_X1
*I *1885:A1 I *D NOR2_X1
*I *1932:A1 I *D NOR2_X1
*I *1935:A1 I *D NOR2_X1
*I *1816:A1 I *D NOR2_X1
*I *1819:A1 I *D NOR2_X1
*I *1895:A1 I *D NOR2_X1
*I *1898:A1 I *D NOR2_X1
*I *1753:A1 I *D NOR2_X1
*I *1761:A1 I *D NOR2_X1
*I *2271:A1 I *D NOR2_X1
*I *2274:A1 I *D NOR2_X1
*I *1845:A1 I *D NOR2_X1
*I *1790:A1 I *D NOR2_X1
*I *1793:A1 I *D NOR2_X1
*I *1796:A1 I *D NOR2_X1
*I *1800:A1 I *D NOR2_X1
*I *1889:A1 I *D NOR2_X1
*I *1810:A1 I *D NOR2_X1
*I *1892:A1 I *D NOR2_X1
*I *1813:A1 I *D NOR2_X1
*I *1467:A I *D BUF_X1
*I *1920:A1 I *D NOR2_X1
*I *1923:A1 I *D NOR2_X1
*I *1747:A1 I *D NOR2_X1
*I *1736:A1 I *D NOR2_X1
*I *1870:A1 I *D NOR2_X1
*I *1873:A1 I *D NOR2_X1
*I *2259:A1 I *D NOR2_X1
*I *2262:A1 I *D NOR2_X1
*I *1876:A1 I *D NOR2_X1
*I *1879:A1 I *D NOR2_X1
*I *2265:A1 I *D NOR2_X1
*I *2268:A1 I *D NOR2_X1
*I *1838:A1 I *D NOR2_X1
*I *1852:A1 I *D NOR2_X1
*I *1859:A1 I *D NOR2_X1
*I *1784:A1 I *D NOR2_X1
*I *1787:A1 I *D NOR2_X1
*I *1803:A1 I *D NOR2_X1
*I *1806:A1 I *D NOR2_X1
*I *2374:A1 I *D NOR3_X1
*I *2379:C1 I *D OAI221_X1
*I *1734:ZN O *D INV_X2
*CAP
1 *1882:A1 7.15973e-06
2 *1885:A1 6.44654e-06
3 *1932:A1 0.000149897
4 *1935:A1 2.22094e-05
5 *1816:A1 0.000117644
6 *1819:A1 7.80175e-06
7 *1895:A1 0
8 *1898:A1 7.4139e-05
9 *1753:A1 0
10 *1761:A1 0.000128016
11 *2271:A1 0
12 *2274:A1 0.000161226
13 *1845:A1 0
14 *1790:A1 5.57804e-05
15 *1793:A1 7.62485e-06
16 *1796:A1 8.3287e-06
17 *1800:A1 7.88495e-05
18 *1889:A1 7.64482e-06
19 *1810:A1 6.03074e-05
20 *1892:A1 6.3961e-06
21 *1813:A1 0
22 *1467:A 5.55543e-06
23 *1920:A1 5.50457e-05
24 *1923:A1 0
25 *1747:A1 1.57542e-05
26 *1736:A1 0
27 *1870:A1 6.92644e-05
28 *1873:A1 0
29 *2259:A1 8.71307e-06
30 *2262:A1 7.37381e-06
31 *1876:A1 6.32249e-05
32 *1879:A1 3.02892e-05
33 *2265:A1 5.97513e-06
34 *2268:A1 0
35 *1838:A1 0
36 *1852:A1 8.71597e-05
37 *1859:A1 0
38 *1784:A1 6.00647e-05
39 *1787:A1 0
40 *1803:A1 8.46676e-05
41 *1806:A1 6.68892e-05
42 *2374:A1 9.24317e-05
43 *2379:C1 5.45845e-05
44 *1734:ZN 8.26228e-05
45 *837:525 0.000196528
46 *837:514 0.000243446
47 *837:493 0.000246503
48 *837:491 0.00032028
49 *837:485 0.00045812
50 *837:483 0.0005443
51 *837:472 0.000289674
52 *837:457 0.000430731
53 *837:451 0.000359631
54 *837:449 0.000402977
55 *837:438 0.000475974
56 *837:423 0.000425721
57 *837:412 0.000220775
58 *837:388 8.31323e-05
59 *837:362 0.000276057
60 *837:360 0.000591572
61 *837:334 0.000149928
62 *837:325 0.000116967
63 *837:316 8.09431e-05
64 *837:305 0.000656787
65 *837:303 0.000651231
66 *837:301 0.000351145
67 *837:286 0.00041429
68 *837:279 0.000365884
69 *837:268 0.000421388
70 *837:259 0.000249117
71 *837:246 0.000322817
72 *837:235 0.000355851
73 *837:224 0.000419056
74 *837:209 0.000396295
75 *837:175 0.000247821
76 *837:169 0.000411701
77 *837:158 0.000110833
78 *837:147 0.000233737
79 *837:133 0.000347329
80 *837:125 0.000672572
81 *837:119 0.000878056
82 *837:110 0.000596159
83 *837:97 0.000508357
84 *837:80 0.000220623
85 *837:76 0.00090737
86 *837:74 0.000465092
87 *837:72 0.000163187
88 *837:55 0.000189348
89 *837:40 0.000422294
90 *837:12 0.000360893
91 *837:8 0.000612604
92 *1467:A *1090:63 7.72537e-06
93 *1747:A1 *1748:A1 2.75719e-05
94 *1747:A1 *1748:B2 1.82068e-05
95 *1761:A1 *1756:B1 0.000310586
96 *1761:A1 *1762:A2 0.000104879
97 *1761:A1 *1762:B2 2.39979e-05
98 *1761:A1 *1763:A1 1.90574e-06
99 *1761:A1 *845:87 1.25215e-05
100 *1761:A1 *1280:370 2.00182e-05
101 *1761:A1 *1303:908 0
102 *1790:A1 *1390:CK 7.98429e-05
103 *1790:A1 *1791:B1 3.73965e-06
104 *1790:A1 *1794:A1 5.8311e-06
105 *1790:A1 *1795:A1 2.58428e-06
106 *1790:A1 *2202:B 2.67408e-05
107 *1790:A1 *1297:116 2.68636e-05
108 *1790:A1 *1306:102 1.66988e-05
109 *1793:A1 *1382:CK 8.26038e-06
110 *1793:A1 *1306:102 4.97191e-06
111 *1800:A1 *1801:A1 1.91297e-05
112 *1800:A1 *1801:B2 5.46179e-06
113 *1800:A1 *1802:A1 7.24761e-06
114 *1800:A1 *2088:B 0
115 *1800:A1 *1100:12 0
116 *1803:A1 *1075:27 1.87106e-05
117 *1803:A1 *1280:325 1.39839e-06
118 *1806:A1 *1414:CK 4.12261e-05
119 *1806:A1 *845:46 1.25215e-05
120 *1806:A1 *1297:45 6.70962e-05
121 *1806:A1 *1297:53 5.43204e-05
122 *1806:A1 *1304:28 0.000139054
123 *1806:A1 *1304:88 6.85774e-07
124 *1810:A1 *1814:A2 0
125 *1810:A1 *1814:B2 0.000129327
126 *1810:A1 *1893:A1 6.16494e-05
127 *1816:A1 *1820:A1 2.05936e-05
128 *1816:A1 *998:10 0
129 *1852:A1 *1444:CK 6.48216e-07
130 *1852:A1 *1854:A 6.38328e-07
131 *1852:A1 *1854:B1 0
132 *1852:A1 *954:10 0
133 *1870:A1 *1874:B2 0
134 *1876:A1 *1880:A1 0
135 *1879:A1 *1880:A1 0
136 *1879:A1 *1880:A2 0
137 *1879:A1 *1280:195 1.43238e-06
138 *1882:A1 *1075:61 1.26998e-05
139 *1882:A1 *1280:364 1.26998e-05
140 *1885:A1 *1886:B2 5.52959e-06
141 *1892:A1 *1319:116 0
142 *1898:A1 *1899:B2 6.87846e-05
143 *1920:A1 *1924:A1 2.65186e-05
144 *1932:A1 *1401:CK 0
145 *1932:A1 *1409:CK 0
146 *1932:A1 *1936:A1 5.07447e-05
147 *1932:A1 *1937:A1 7.16188e-07
148 *1932:A1 *2025:A1 0
149 *1932:A1 *1309:25 0
150 *1932:A1 *1309:136 0
151 *1935:A1 *1064:41 0
152 *2262:A1 *2260:A 7.16188e-07
153 *2262:A1 *2260:B1 3.19164e-07
154 *2265:A1 *1877:B1 1.39839e-06
155 *2265:A1 *1880:B1 7.19036e-06
156 *2274:A1 *1412:CK 0
157 *2374:A1 *2379:B2 0.000159722
158 *2374:A1 *1282:45 5.85389e-05
159 *2379:C1 *2379:B2 0.000235241
160 *837:8 *1734:A 8.43215e-07
161 *837:8 *1303:55 3.46961e-05
162 *837:12 *1280:103 0
163 *837:40 *1807:B2 3.09795e-05
164 *837:40 *1992:B 1.2168e-05
165 *837:40 *2007:A2 5.67608e-05
166 *837:40 *1074:16 9.99301e-05
167 *837:40 *1075:14 1.0276e-05
168 *837:40 *1280:308 0
169 *837:40 *1295:75 1.33085e-05
170 *837:40 *1303:55 0.000139281
171 *837:40 *1304:26 6.48216e-07
172 *837:55 *1414:CK 3.74027e-05
173 *837:55 *1297:53 0.000157273
174 *837:72 *1075:27 1.60974e-05
175 *837:72 *1280:325 1.66315e-05
176 *837:76 *948:8 0
177 *837:76 *1297:106 8.70229e-06
178 *837:76 *1303:249 0
179 *837:80 *1788:B1 3.5628e-06
180 *837:80 *1788:B2 2.75346e-06
181 *837:80 *1789:A1 8.41007e-06
182 *837:97 *1788:B2 7.72537e-06
183 *837:97 *845:187 0
184 *837:97 *1306:135 0
185 *837:110 *1299:104 0
186 *837:119 *1299:104 0
187 *837:119 *1299:121 0
188 *837:125 *2077:A2 1.73125e-05
189 *837:125 *1312:22 0
190 *837:133 *2205:A1 0.000115654
191 *837:133 *1295:199 0.000133653
192 *837:133 *1295:201 7.19036e-06
193 *837:133 *1312:68 0
194 *837:147 *2266:A 0.000144027
195 *837:147 *1100:77 0
196 *837:147 *1299:121 0
197 *837:147 *1299:138 0
198 *837:158 *2266:A 7.59792e-05
199 *837:158 *1299:138 0
200 *837:169 *1299:138 0
201 *837:175 *1880:A2 1.26998e-05
202 *837:175 *1880:B2 0
203 *837:175 *979:8 3.28697e-05
204 *837:175 *1280:195 0
205 *837:209 *2260:A 0.000149745
206 *837:209 *1280:217 7.78651e-05
207 *837:209 *1299:138 0
208 *837:209 *1299:153 0
209 *837:209 *1299:164 0.000287218
210 *837:209 *1299:181 0.000188542
211 *837:224 *1299:181 0.000133653
212 *837:235 *1392:CK 2.52965e-06
213 *837:246 *1874:B2 0
214 *837:268 *1391:CK 0
215 *837:268 *1748:A1 5.11118e-06
216 *837:268 *1748:B2 1.45225e-05
217 *837:268 *1318:64 0
218 *837:279 *1748:A1 2.12853e-05
219 *837:279 *1748:A2 2.30024e-06
220 *837:279 *1921:A 4.72682e-05
221 *837:279 *851:8 0
222 *837:286 *1921:B1 7.99278e-06
223 *837:305 *1445:CK 1.9871e-06
224 *837:305 *1890:B1 0
225 *837:305 *1893:B2 0
226 *837:305 *1905:A1 0
227 *837:305 *1303:551 0
228 *837:325 *1814:B2 2.75346e-06
229 *837:334 *1814:B2 1.43761e-05
230 *837:334 *1319:116 0
231 *837:334 *1319:133 0
232 *837:360 *1789:A1 0
233 *837:360 *1795:A1 0
234 *837:360 *1802:A1 4.03274e-05
235 *837:360 *1809:A1 1.04089e-05
236 *837:360 *1809:A2 4.69533e-06
237 *837:360 *2083:A2 4.04418e-05
238 *837:360 *2159:A2 5.1203e-06
239 *837:360 *2202:B 9.118e-06
240 *837:360 *2234:A1 6.48216e-07
241 *837:360 *2234:A2 2.25089e-06
242 *837:360 *853:12 0
243 *837:360 *1297:106 6.51379e-06
244 *837:362 *1382:CK 0
245 *837:362 *1802:A1 4.58595e-05
246 *837:362 *2202:B 1.25215e-05
247 *837:388 *1306:102 8.02101e-05
248 *837:412 *1847:A 3.83453e-06
249 *837:412 *1848:A1 6.0887e-06
250 *837:412 *1075:27 2.6249e-05
251 *837:412 *1280:325 1.26718e-05
252 *837:423 *1075:27 3.19164e-07
253 *837:423 *1295:100 6.13645e-05
254 *837:438 *1075:38 2.9705e-05
255 *837:449 *1416:CK 6.48216e-07
256 *837:449 *2018:A1 0
257 *837:449 *2018:A2 0
258 *837:449 *2020:A1 0
259 *837:449 *986:8 6.32202e-06
260 *837:449 *1077:23 0
261 *837:449 *1294:67 0
262 *837:451 *1886:A1 1.9695e-05
263 *837:451 *1887:A1 6.42186e-06
264 *837:451 *983:10 2.94705e-06
265 *837:451 *1294:67 0
266 *837:457 *1762:B1 0
267 *837:457 *1988:A1 9.57492e-07
268 *837:457 *983:10 2.09931e-05
269 *837:457 *1062:62 0
270 *837:472 *1762:A2 1.40196e-06
271 *837:483 *1401:CK 0
272 *837:483 *1415:CK 6.48216e-07
273 *837:483 *1762:A1 0
274 *837:483 *1062:82 0
275 *837:483 *1280:385 0.000251223
276 *837:483 *1280:398 1.73657e-05
277 *837:483 *1308:12 0
278 *837:483 *1308:106 0
279 *837:485 *1401:CK 0
280 *837:485 *1933:B1 4.76429e-07
281 *837:485 *1936:A1 1.60668e-05
282 *837:485 *1936:B1 3.64246e-05
283 *837:485 *1937:A1 2.26306e-06
284 *837:485 *1309:25 0
285 *837:491 *1936:B1 2.0659e-05
286 *837:491 *845:104 0.00029114
287 *837:491 *1303:925 1.86328e-06
288 *837:491 *1309:25 0
289 *837:491 *1309:31 0
290 *837:514 *1899:A2 2.94435e-05
291 *837:514 *1899:B2 5.54369e-05
292 *837:514 *1900:A1 5.66481e-05
293 *1369:D *1920:A1 7.19036e-06
294 *1369:D *837:279 0
295 *1369:D *837:286 0
296 *1369:D *837:301 0
297 *1370:D *837:316 0
298 *1374:D *837:388 1.72426e-05
299 *1391:D *837:259 0
300 *1407:D *1761:A1 8.56664e-06
301 *1412:D *2274:A1 0
302 *1412:D *837:423 0
303 *1414:D *837:55 2.40616e-05
304 *1416:D *837:449 2.55029e-06
305 *1435:D *837:125 0
306 *1444:D *1852:A1 0
307 *1753:A2 *1761:A1 1.14339e-05
308 *1773:A1 *837:12 0.000120658
309 *1785:B2 *837:80 0
310 *1790:A2 *1790:A1 1.21774e-06
311 *1793:A2 *837:388 1.33892e-05
312 *1803:A2 *1803:A1 1.63647e-05
313 *1805:B2 *1806:A1 1.73125e-05
314 *1810:A2 *1810:A1 2.39679e-06
315 *1813:A2 *837:316 8.50486e-06
316 *1816:A2 *1816:A1 2.61265e-05
317 *1819:A2 *1819:A1 6.48216e-07
318 *1822:A *837:305 0
319 *1825:A2 *837:305 6.00961e-05
320 *1845:A2 *837:423 3.71289e-05
321 *1870:A2 *1870:A1 0
322 *1882:A2 *837:449 3.94669e-05
323 *1882:A2 *837:451 1.045e-05
324 *1885:A2 *837:457 3.69961e-05
325 *1889:A2 *1810:A1 3.02351e-05
326 *1890:A *837:305 0
327 *1895:A2 *1816:A1 1.17192e-05
328 *1895:A2 *837:525 0.000221593
329 *1898:A2 *1898:A1 7.16188e-07
330 *1901:A *837:305 0
331 *1904:A1 *1467:A 2.52965e-06
332 *1904:A1 *837:305 2.96955e-05
333 *1920:A2 *1920:A1 2.94435e-05
334 *1923:A2 *837:279 5.03556e-06
335 *1923:A2 *837:286 1.21774e-06
336 *1932:A2 *1932:A1 2.3767e-06
337 *1935:A2 *1935:A1 1.21774e-06
338 *1939:B *837:12 0
339 *1971:A1 *1761:A1 1.62366e-05
340 *1983:A2 *1761:A1 6.48216e-07
341 *2007:A1 *837:40 9.05188e-05
342 *2012:A *1803:A1 2.70522e-05
343 *2053:B1 *837:305 0
344 *2057:A2 *1879:A1 8.43215e-07
345 *2090:A *837:305 0
346 *2164:S *1784:A1 2.39679e-06
347 *2197:A2 *837:360 0
348 *2222:B1 *837:305 0
349 *2242:A2 *837:125 1.68643e-06
350 *2242:A2 *837:133 2.39679e-06
351 *2246:A1 *837:235 4.32902e-06
352 *2247:A1 *837:246 0
353 *2262:A2 *837:209 3.02351e-05
354 *2262:A2 *837:224 0.000129699
355 *2265:A2 *837:158 3.02351e-05
356 *2265:A2 *837:169 6.26003e-05
357 *2265:A2 *837:209 0.000179554
358 *2269:A1 *837:158 4.80288e-05
359 *2269:A1 *837:169 7.66675e-07
360 *2269:A2 *837:147 0
361 *2271:A2 *837:449 1.37734e-05
362 *2275:A1 *837:438 3.90891e-05
363 *2362:A2 *837:438 2.75346e-06
364 *2362:A2 *837:449 1.0682e-05
365 *2379:C2 *2379:C1 8.43215e-07
366 *64:10 *837:209 0
367 *72:8 *837:235 0
368 *81:12 *837:485 8.59171e-06
369 *86:8 *837:40 1.35547e-05
370 *90:12 *1819:A1 2.52965e-06
371 *107:12 *1876:A1 2.54476e-05
372 *107:12 *1879:A1 6.92212e-05
373 *124:8 *1852:A1 7.87811e-06
374 *125:8 *837:305 2.08287e-05
375 *126:6 *1800:A1 0
376 *142:12 *837:80 8.43215e-07
377 *142:12 *837:97 2.03226e-05
378 *145:8 *1920:A1 2.40658e-05
379 *150:8 *837:360 3.52552e-05
380 *150:10 *1876:A1 5.39568e-05
381 *150:10 *837:360 0
382 *153:10 *2374:A1 4.77786e-06
383 *153:10 *837:12 0
384 *376:55 *837:125 2.02998e-05
385 *376:55 *837:133 5.9991e-05
386 *376:65 *837:175 8.94571e-06
387 *376:72 *837:175 3.89111e-05
388 *376:78 *837:175 6.51944e-05
389 *389:23 *837:97 2.86475e-06
390 *424:10 *837:360 5.46172e-05
391 *448:14 *1790:A1 1.61002e-06
392 *448:14 *837:388 6.03486e-06
393 *461:84 *837:259 0
394 *461:84 *837:268 0
395 *471:49 *837:224 3.34038e-05
396 *471:57 *837:224 2.52965e-06
397 *471:57 *837:235 2.6518e-05
398 *471:66 *837:235 6.06867e-06
399 *471:66 *837:246 3.19164e-07
400 *471:83 *837:246 0
401 *473:6 *837:235 1.07393e-05
402 *473:46 *1810:A1 0
403 *596:23 *2379:C1 2.89018e-05
404 *596:23 *837:12 6.26024e-05
405 *596:29 *2379:C1 0.000223968
406 *598:31 *2274:A1 8.23298e-06
407 *598:111 *837:119 0
408 *598:111 *837:147 0
409 *633:115 *1761:A1 6.78878e-05
410 *634:170 *1898:A1 0
411 *634:170 *1935:A1 2.87703e-06
412 *634:170 *837:491 8.17188e-05
413 *636:67 *837:423 0
414 *636:67 *837:438 0
415 *636:76 *837:438 0
416 *636:76 *837:449 0
417 *636:107 *1932:A1 0
418 *756:41 *837:514 0
419 *756:130 *837:305 0
420 *811:40 *1816:A1 4.55191e-06
421 *811:40 *837:525 3.50653e-05
422 *811:55 *1816:A1 3.21899e-05
423 *811:170 *837:305 1.65458e-05
424 *811:170 *837:316 3.65672e-06
425 *811:170 *837:325 2.14856e-06
*RES
1 *1734:ZN *837:8 14.1786 
2 *837:8 *837:12 29 
3 *837:12 *2379:C1 23.8929 
4 *837:12 *2374:A1 25.25 
5 *837:8 *837:40 48.4286 
6 *837:40 *1806:A1 21.5 
7 *837:40 *837:55 13.3929 
8 *837:55 *1803:A1 15.9643 
9 *837:55 *837:72 7.75 
10 *837:72 *837:74 5 
11 *837:74 *837:76 49.7857 
12 *837:76 *837:80 10.75 
13 *837:80 *1787:A1 5 
14 *837:80 *837:97 28.0357 
15 *837:97 *1784:A1 10.75 
16 *837:97 *837:110 34.4286 
17 *837:110 *1859:A1 10 
18 *837:110 *837:119 32.8214 
19 *837:119 *837:125 46.1786 
20 *837:125 *837:133 43.2857 
21 *837:133 *1852:A1 13.75 
22 *837:125 *1838:A1 5 
23 *837:119 *837:147 18.5714 
24 *837:147 *2268:A1 10 
25 *837:147 *837:158 13.2143 
26 *837:158 *2265:A1 10.75 
27 *837:158 *837:169 3.64286 
28 *837:169 *837:175 30.25 
29 *837:175 *1879:A1 14.3929 
30 *837:175 *1876:A1 18.7143 
31 *837:169 *837:209 43.6429 
32 *837:209 *2262:A1 10.75 
33 *837:209 *837:224 27.2857 
34 *837:224 *2259:A1 5.92857 
35 *837:224 *837:235 26.3572 
36 *837:235 *1873:A1 5 
37 *837:235 *837:246 15.75 
38 *837:246 *1870:A1 17.0357 
39 *837:246 *837:259 19.75 
40 *837:259 *1736:A1 5 
41 *837:259 *837:268 10.5357 
42 *837:268 *1747:A1 7.75 
43 *837:268 *837:279 33.1786 
44 *837:279 *1923:A1 5 
45 *837:279 *837:286 6.25 
46 *837:286 *1920:A1 23.4643 
47 *837:286 *837:301 29.25 
48 *837:301 *837:303 5 
49 *837:303 *837:305 70.8215 
50 *837:305 *1467:A 10.75 
51 *837:301 *837:316 5.25 
52 *837:316 *1813:A1 5 
53 *837:316 *837:325 3.53572 
54 *837:325 *1892:A1 6.25 
55 *837:325 *837:334 8.75 
56 *837:334 *1810:A1 25.5 
57 *837:334 *1889:A1 5.75 
58 *837:76 *837:360 49.6072 
59 *837:360 *837:362 21.25 
60 *837:362 *1800:A1 13.7857 
61 *837:362 *1796:A1 5.92857 
62 *837:360 *837:388 9.32143 
63 *837:388 *1793:A1 11.25 
64 *837:388 *1790:A1 18.75 
65 *837:72 *837:412 12.1786 
66 *837:412 *1845:A1 5 
67 *837:412 *837:423 20.6786 
68 *837:423 *2274:A1 25.1786 
69 *837:423 *837:438 21.6786 
70 *837:438 *2271:A1 5 
71 *837:438 *837:449 39.9286 
72 *837:449 *837:451 6.35715 
73 *837:451 *837:457 36.1072 
74 *837:457 *1761:A1 39.5714 
75 *837:457 *837:472 1.25 
76 *837:472 *1753:A1 5 
77 *837:472 *837:483 38.8572 
78 *837:483 *837:485 14.5 
79 *837:485 *837:491 47.75 
80 *837:491 *837:493 5 
81 *837:493 *1898:A1 18.7857 
82 *837:493 *837:514 25.3214 
83 *837:514 *1895:A1 5 
84 *837:514 *837:525 17.5357 
85 *837:525 *1819:A1 10.75 
86 *837:525 *1816:A1 25.5 
87 *837:485 *1935:A1 12.25 
88 *837:483 *1932:A1 26.75 
89 *837:451 *1885:A1 11.25 
90 *837:449 *1882:A1 11.25 
*END

*D_NET *839 0.00033444
*CONN
*I *1748:A1 I *D OAI22_X1
*I *1736:ZN O *D NOR2_X1
*CAP
1 *1748:A1 0.000113304
2 *1736:ZN 0.000113304
3 *1748:A1 *1748:A2 8.43215e-07
4 *1748:A1 *1748:B2 1.06834e-05
5 *1748:A1 *1298:196 4.23376e-05
6 *1747:A1 *1748:A1 2.75719e-05
7 *461:84 *1748:A1 0
8 *837:268 *1748:A1 5.11118e-06
9 *837:279 *1748:A1 2.12853e-05
*RES
1 *1736:ZN *1748:A1 33.8214 
*END

*D_NET *844 0.000150982
*CONN
*I *1748:A2 I *D OAI22_X1
*I *1741:ZN O *D OAI21_X1
*CAP
1 *1748:A2 4.74486e-05
2 *1741:ZN 4.74486e-05
3 *1748:A2 *1748:B1 1.37926e-05
4 *1748:A2 *1921:A 4.7972e-06
5 *1748:A2 *851:8 7.21602e-06
6 *1748:A2 *1298:196 2.71361e-05
7 *1748:A1 *1748:A2 8.43215e-07
8 *837:279 *1748:A2 2.30024e-06
*RES
1 *1741:ZN *1748:A2 26.0714 
*END

*D_NET *845 0.0141887
*CONN
*I *2255:A I *D OAI21_X1
*I *1490:A I *D BUF_X1
*I *1786:A I *D OAI21_X1
*I *1792:A I *D OAI21_X1
*I *1799:A I *D OAI21_X1
*I *1805:A I *D OAI21_X1
*I *1897:A I *D OAI21_X1
*I *1818:A I *D OAI21_X1
*I *1934:A I *D OAI21_X1
*I *1759:A I *D OAI21_X1
*I *1884:A I *D OAI21_X1
*I *2273:A I *D OAI21_X1
*I *2379:B2 I *D OAI221_X1
*I *2374:A2 I *D NOR3_X1
*I *1742:ZN O *D INV_X1
*CAP
1 *2255:A 0.000148113
2 *1490:A 0
3 *1786:A 0
4 *1792:A 0
5 *1799:A 0.000118445
6 *1805:A 4.64021e-06
7 *1897:A 0
8 *1818:A 0.000134647
9 *1934:A 8.96547e-05
10 *1759:A 8.71307e-06
11 *1884:A 0
12 *2273:A 0
13 *2379:B2 0.000188537
14 *2374:A2 0
15 *1742:ZN 0.000294408
16 *845:187 0.000513642
17 *845:181 0.000447737
18 *845:168 0.000482008
19 *845:157 0.000604587
20 *845:104 0.000310262
21 *845:87 0.000621459
22 *845:74 0.000578656
23 *845:67 0.000508246
24 *845:54 0.000388664
25 *845:46 0.00052781
26 *845:44 0.000451405
27 *845:40 0.000763502
28 *845:14 0.000424522
29 *845:10 0.00128746
30 *845:8 0.000518447
31 *1799:A *1422:CK 0.000139904
32 *1799:A *1797:B1 2.75346e-06
33 *1799:A *1801:B1 1.11258e-05
34 *1799:A *1100:12 0
35 *1799:A *1303:110 7.72537e-06
36 *1799:A *1306:58 6.3392e-05
37 *1805:A *1805:B1 2.75346e-06
38 *1805:A *1062:17 1.87369e-06
39 *1805:A *1297:45 7.72537e-06
40 *1818:A *1817:B1 6.32461e-06
41 *1818:A *1303:929 2.26129e-05
42 *1818:A *1303:940 0.00015729
43 *1818:A *1309:66 8.00929e-05
44 *1934:A *1934:B1 2.75346e-06
45 *1934:A *1936:B1 3.20904e-05
46 *1934:A *1042:55 0
47 *1934:A *1309:31 0
48 *2255:A *1303:301 0
49 *2379:B2 *1944:S 0
50 *845:8 *1422:CK 0
51 *845:40 *1414:CK 1.71012e-05
52 *845:40 *1992:B 1.6126e-05
53 *845:40 *1297:45 6.44559e-05
54 *845:40 *1304:28 8.92003e-05
55 *845:44 *1304:28 6.63045e-05
56 *845:46 *1404:CK 0
57 *845:46 *1062:17 3.6056e-05
58 *845:46 *1062:38 2.2998e-05
59 *845:46 *1299:34 3.22783e-05
60 *845:46 *1303:1006 8.87096e-06
61 *845:46 *1303:1012 4.29713e-06
62 *845:46 *1304:88 3.09143e-06
63 *845:54 *1299:45 8.88497e-06
64 *845:54 *1303:1006 0.000300752
65 *845:67 *983:10 4.02087e-05
66 *845:67 *1294:52 5.52692e-06
67 *845:74 *1303:889 2.75346e-06
68 *845:74 *1303:893 0.000114408
69 *845:74 *1303:902 1.21774e-06
70 *845:87 *1337:CK 3.09411e-06
71 *845:87 *1983:A1 6.11142e-05
72 *845:87 *1985:A1 1.99237e-05
73 *845:87 *1985:A2 6.38328e-07
74 *845:87 *1303:902 3.28283e-07
75 *845:87 *1303:925 0
76 *845:87 *1309:31 1.09322e-05
77 *845:104 *1897:B1 1.25215e-05
78 *845:104 *1936:B1 1.68773e-05
79 *845:104 *1303:925 0.000281552
80 *845:104 *1309:31 0
81 *845:157 *1088:12 6.04218e-05
82 *845:157 *1280:120 5.1474e-05
83 *845:168 *1786:B1 1.73151e-05
84 *845:168 *2027:A2 2.08638e-05
85 *845:168 *2127:B 0
86 *845:168 *1088:12 3.31065e-05
87 *845:168 *1297:106 0
88 *845:168 *1303:239 0.000151502
89 *845:168 *1303:249 6.54588e-06
90 *845:168 *1306:22 3.33445e-06
91 *845:181 *1788:A1 1.14365e-05
92 *845:181 *1788:A2 7.9759e-06
93 *845:181 *1788:B2 1.045e-05
94 *845:181 *2127:B 0
95 *845:181 *1306:14 2.24327e-06
96 *845:181 *1306:135 0.000310044
97 *845:187 *1857:B1 2.21086e-05
98 *845:187 *2131:B1 3.90865e-05
99 *845:187 *1303:275 0
100 *845:187 *1303:301 0
101 *1374:D *845:168 0
102 *1393:D *1934:A 0
103 *1393:D *845:87 5.65801e-06
104 *1404:D *845:46 3.90891e-05
105 *1407:D *845:87 0
106 *1422:D *1799:A 0.000140046
107 *1516:A *845:67 0
108 *1761:A1 *845:87 1.25215e-05
109 *1799:B2 *1799:A 8.11741e-05
110 *1805:B2 *845:46 1.08666e-05
111 *1806:A1 *845:46 1.25215e-05
112 *1983:A2 *845:87 2.90622e-05
113 *2122:A1 *845:168 0
114 *2127:A *845:181 2.3767e-06
115 *2255:B2 *2255:A 3.58094e-06
116 *2257:B1 *2255:A 0
117 *2272:B2 *845:46 1.80284e-05
118 *2273:B2 *845:54 2.16072e-07
119 *2273:B2 *845:67 1.40737e-05
120 *2275:B2 *845:46 0
121 *2345:A2 *2255:A 0
122 *2365:A1 *845:54 1.36786e-05
123 *2365:A2 *845:54 5.59765e-05
124 *2374:A1 *2379:B2 0.000159722
125 *2374:A3 *2379:B2 0.000155461
126 *2379:C1 *2379:B2 0.000235241
127 *2379:C2 *2379:B2 4.16464e-05
128 *21:19 *1818:A 0.000527346
129 *30:8 *845:168 9.57492e-07
130 *102:8 *1799:A 3.07768e-05
131 *136:6 *2255:A 4.76331e-06
132 *153:10 *2379:B2 4.32144e-07
133 *153:12 *2379:B2 0
134 *389:23 *845:181 0.000196255
135 *389:23 *845:187 0
136 *389:25 *2255:A 0
137 *389:25 *845:187 0
138 *401:12 *845:168 0
139 *401:12 *845:181 0
140 *401:33 *845:181 0
141 *487:10 *2255:A 4.54406e-05
142 *595:68 *2255:A 0
143 *596:29 *2379:B2 1.36837e-05
144 *598:37 *845:46 0
145 *598:44 *845:46 0
146 *598:49 *845:46 0
147 *633:100 *845:67 0
148 *633:104 *845:67 0
149 *633:104 *845:74 0
150 *633:115 *845:74 0
151 *633:115 *845:87 9.66611e-07
152 *634:8 *845:54 2.23415e-06
153 *634:8 *845:67 2.24327e-06
154 *634:131 *845:67 5.85454e-05
155 *634:146 *845:87 0
156 *634:161 *845:87 0
157 *636:52 *845:40 9.01031e-06
158 *636:52 *845:44 2.54776e-05
159 *636:52 *845:46 5.1203e-06
160 *837:97 *845:187 0
161 *837:491 *845:104 0.00029114
*RES
1 *1742:ZN *845:8 18.75 
2 *845:8 *845:10 34.6072 
3 *845:10 *845:14 29.25 
4 *845:14 *2374:A2 5 
5 *845:14 *2379:B2 46.6072 
6 *845:10 *845:40 39.6586 
7 *845:40 *845:44 8.64286 
8 *845:44 *845:46 48.75 
9 *845:46 *845:54 27.1071 
10 *845:54 *2273:A 5 
11 *845:54 *845:67 44.5 
12 *845:67 *1884:A 5 
13 *845:67 *845:74 25.75 
14 *845:74 *1759:A 5.92857 
15 *845:74 *845:87 43.8572 
16 *845:87 *1934:A 20.4643 
17 *845:87 *845:104 37.0714 
18 *845:104 *1818:A 45.1072 
19 *845:104 *1897:A 5 
20 *845:40 *1805:A 10.75 
21 *845:8 *1799:A 31.6786 
22 *1742:ZN *845:157 40.5357 
23 *845:157 *1792:A 5 
24 *845:157 *845:168 45.9286 
25 *845:168 *1786:A 5 
26 *845:168 *845:181 28.2857 
27 *845:181 *845:187 36.1072 
28 *845:187 *1490:A 5 
29 *845:187 *2255:A 20.9286 
*END

*D_NET *848 0.000548328
*CONN
*I *1748:B1 I *D OAI22_X1
*I *1745:ZN O *D OAI21_X1
*CAP
1 *1748:B1 0.00017897
2 *1745:ZN 0.00017897
3 *1748:B1 *1741:B1 4.29927e-05
4 *1748:B1 *1745:B1 5.92806e-07
5 *1748:B1 *1748:B2 2.75346e-06
6 *1748:B1 *1921:A 3.82849e-05
7 *1748:B1 *851:8 2.77011e-05
8 *1748:B1 *851:10 4.83477e-05
9 *1748:B1 *1298:196 5.36441e-07
10 *1748:B1 *1303:527 5.85166e-06
11 *1748:B1 *1303:533 0
12 *1745:A *1748:B1 6.56144e-06
13 *1748:A2 *1748:B1 1.37926e-05
14 *47:6 *1748:B1 2.97287e-06
*RES
1 *1745:ZN *1748:B1 42.75 
*END

*D_NET *850 0.000322212
*CONN
*I *1748:B2 I *D OAI22_X1
*I *1747:ZN O *D NOR2_X1
*CAP
1 *1748:B2 0.000100829
2 *1747:ZN 0.000100829
3 *1748:B2 *1921:A 3.22834e-06
4 *1748:B2 *1280:235 3.86283e-05
5 *1747:A1 *1748:B2 1.82068e-05
6 *1747:A2 *1748:B2 7.65033e-06
7 *1748:A1 *1748:B2 1.06834e-05
8 *1748:B1 *1748:B2 2.75346e-06
9 *461:82 *1748:B2 2.84765e-06
10 *461:84 *1748:B2 2.20333e-05
11 *837:268 *1748:B2 1.45225e-05
*RES
1 *1747:ZN *1748:B2 33.1071 
*END

*D_NET *851 0.00233662
*CONN
*I *1751:A1 I *D NAND2_X1
*I *1748:ZN O *D OAI22_X1
*CAP
1 *1751:A1 5.63032e-06
2 *1748:ZN 4.2227e-05
3 *851:10 0.000417769
4 *851:8 0.000454366
5 *1751:A1 *1751:A2 3.65322e-06
6 *1751:A1 *1090:52 9.62051e-07
7 *851:8 *1921:A 2.30863e-05
8 *851:10 *1431:CK 4.12796e-06
9 *851:10 *1751:A2 0.000298281
10 *851:10 *1921:A 8.21988e-06
11 *851:10 *853:59 2.96955e-05
12 *851:10 *968:10 8.60632e-06
13 *851:10 *1318:12 1.72426e-05
14 *851:10 *1318:18 0.000186818
15 *851:10 *1318:51 0.000359111
16 *851:10 *1318:64 0.000124218
17 *1748:A2 *851:8 7.21602e-06
18 *1748:B1 *851:8 2.77011e-05
19 *1748:B1 *851:10 4.83477e-05
20 *1771:A2 *851:10 0.000269346
21 *461:67 *851:8 0
22 *837:279 *851:8 0
*RES
1 *1748:ZN *851:8 15.25 
2 *851:8 *851:10 70.1429 
3 *851:10 *1751:A1 10.75 
*END

*D_NET *852 0.00356327
*CONN
*I *1750:A I *D INV_X1
*I *2215:A1 I *D NOR2_X2
*I *2234:A1 I *D NOR2_X2
*I *2197:A1 I *D NOR2_X2
*I *2178:A1 I *D NOR2_X2
*I *1749:ZN O *D NAND2_X1
*CAP
1 *1750:A 0
2 *2215:A1 5.2897e-05
3 *2234:A1 6.87197e-06
4 *2197:A1 5.42377e-06
5 *2178:A1 3.92049e-05
6 *1749:ZN 6.02269e-05
7 *852:49 6.833e-05
8 *852:36 6.68553e-05
9 *852:25 0.000179542
10 *852:10 0.000372562
11 *852:8 0.000264016
12 *2178:A1 *2178:A2 1.92688e-05
13 *2178:A1 *2183:B 5.89793e-05
14 *2178:A1 *1303:93 0
15 *2178:A1 *1306:22 0
16 *2197:A1 *876:12 2.16072e-07
17 *2197:A1 *876:21 1.18589e-06
18 *2215:A1 *1795:A1 8.94571e-06
19 *2215:A1 *1795:A2 8.43215e-07
20 *2215:A1 *1809:A2 2.61469e-06
21 *2215:A1 *2064:A2 1.32323e-05
22 *2215:A1 *2083:A2 1.59582e-06
23 *2215:A1 *2159:A2 3.09143e-06
24 *2215:A1 *2234:A2 3.23723e-07
25 *2215:A1 *1061:38 7.19036e-06
26 *2234:A1 *2159:A2 7.19036e-06
27 *852:8 *1304:88 8.55469e-05
28 *852:10 *1039:23 0.000920132
29 *852:10 *1061:23 0
30 *852:10 *1074:20 0.000726323
31 *852:25 *2027:A2 7.63182e-05
32 *852:25 *1039:23 2.96272e-05
33 *852:25 *1074:20 0.000284161
34 *852:36 *876:23 9.28844e-05
35 *852:36 *910:10 0
36 *852:36 *1074:20 3.93956e-05
37 *852:49 *876:23 4.18301e-05
38 *1773:A1 *852:8 1.32732e-05
39 *2007:A1 *852:10 0
40 *2159:A1 *852:36 0
41 *2197:A2 *2197:A1 7.72792e-06
42 *471:10 *2215:A1 4.79729e-06
43 *837:360 *2234:A1 6.48216e-07
*RES
1 *1749:ZN *852:8 18.25 
2 *852:8 *852:10 49.1072 
3 *852:10 *2178:A1 15.75 
4 *852:10 *852:25 22.2857 
5 *852:25 *2197:A1 10.75 
6 *852:25 *852:36 7.03572 
7 *852:36 *2234:A1 10.75 
8 *852:36 *852:49 7.28572 
9 *852:49 *2215:A1 11.25 
10 *852:49 *1750:A 5 
*END

*D_NET *853 0.00766292
*CONN
*I *1795:A2 I *D NAND2_X1
*I *1815:A2 I *D NAND2_X1
*I *1894:A2 I *D NAND2_X1
*I *1925:A2 I *D NAND2_X1
*I *1751:A2 I *D NAND2_X1
*I *1875:A2 I *D NAND2_X1
*I *2264:A2 I *D NAND2_X1
*I *1841:A2 I *D NAND2_X1
*I *1750:ZN O *D INV_X1
*CAP
1 *1795:A2 2.34723e-05
2 *1815:A2 4.28708e-05
3 *1894:A2 3.08161e-05
4 *1925:A2 0
5 *1751:A2 0.000125336
6 *1875:A2 3.44964e-05
7 *2264:A2 4.19783e-05
8 *1841:A2 0
9 *1750:ZN 0
10 *853:85 0.000507638
11 *853:74 0.000697673
12 *853:59 0.000602093
13 *853:42 0.000444176
14 *853:27 0.000585165
15 *853:25 0.00056333
16 *853:14 0.00044653
17 *853:12 0.000479139
18 *853:4 0.000272869
19 *1751:A2 *1431:CK 1.72084e-05
20 *1751:A2 *1783:A1 2.47905e-06
21 *1751:A2 *1090:52 0
22 *1751:A2 *1113:44 1.37673e-05
23 *1795:A2 *1809:A2 1.25189e-05
24 *1795:A2 *2159:A2 3.23723e-07
25 *1795:A2 *1297:112 0
26 *1815:A2 *1827:A1 2.52965e-06
27 *1815:A2 *1827:A2 4.15825e-06
28 *1815:A2 *915:12 8.43215e-07
29 *1875:A2 *1888:A3 0
30 *1875:A2 *2039:A1 0
31 *1894:A2 *1894:A1 8.43215e-07
32 *1894:A2 *1113:91 9.62051e-07
33 *2264:A2 *2357:A1 1.02133e-05
34 *2264:A2 *876:58 1.99763e-05
35 *853:12 *1809:A2 0
36 *853:12 *2159:A2 7.19234e-06
37 *853:12 *876:23 0
38 *853:12 *884:27 0
39 *853:12 *1297:112 0
40 *853:14 *876:23 0
41 *853:25 *2056:A2 0.000211621
42 *853:27 *2056:A1 7.72792e-06
43 *853:27 *2056:A2 7.19036e-06
44 *853:27 *2058:A2 1.28019e-05
45 *853:27 *2354:A1 0
46 *853:27 *876:43 2.94041e-05
47 *853:27 *1088:55 0
48 *853:27 *1088:57 3.8017e-05
49 *853:27 *1102:20 0.00019037
50 *853:42 *2357:A1 4.32144e-07
51 *853:42 *2358:A1 2.04211e-05
52 *853:42 *1088:82 6.0406e-05
53 *853:42 *1102:20 0.000336453
54 *853:59 *1431:CK 2.58456e-05
55 *853:59 *1447:CK 4.4061e-05
56 *853:59 *2050:A1 0
57 *853:59 *1088:82 0.000163001
58 *853:59 *1102:20 0.000155635
59 *853:59 *1298:154 0
60 *853:59 *1298:164 0
61 *853:74 *1431:CK 0.0002227
62 *853:74 *1925:A1 3.65322e-06
63 *853:74 *1102:48 0
64 *853:85 *1826:B2 0
65 *853:85 *1827:A2 1.28122e-06
66 *853:85 *1925:A1 1.21774e-06
67 *853:85 *2053:A 0
68 *853:85 *1102:48 1.7996e-05
69 *1429:D *853:85 0
70 *1751:A1 *1751:A2 3.65322e-06
71 *1825:A2 *853:85 0
72 *2053:B1 *853:85 0
73 *2215:A1 *1795:A2 8.43215e-07
74 *2264:A1 *2264:A2 3.65322e-06
75 *2267:A *853:42 1.69265e-05
76 *2267:B2 *853:42 7.98822e-06
77 *2268:A2 *853:27 0
78 *2269:A1 *853:27 8.87096e-06
79 *2269:A2 *853:27 1.32348e-05
80 *2269:B1 *2264:A2 2.55387e-06
81 *2269:B1 *853:27 3.03114e-05
82 *2269:B1 *853:42 7.83107e-05
83 *2269:B2 *853:27 0
84 *2270:A1 *853:27 9.30692e-06
85 *147:8 *853:59 0
86 *147:8 *853:74 0
87 *376:59 *853:25 0.000353524
88 *595:189 *1815:A2 0
89 *595:189 *1894:A2 0.000132863
90 *609:216 *853:85 0
91 *811:143 *1894:A2 0.000132074
92 *837:360 *853:12 0
93 *851:10 *1751:A2 0.000298281
94 *851:10 *853:59 2.96955e-05
*RES
1 *1750:ZN *853:4 5 
2 *853:4 *853:12 32.125 
3 *853:12 *853:14 23.6607 
4 *853:14 *1841:A2 10 
5 *853:14 *853:25 38.5 
6 *853:25 *853:27 43.75 
7 *853:27 *2264:A2 20.2143 
8 *853:27 *853:42 32.25 
9 *853:42 *1875:A2 17.9643 
10 *853:42 *853:59 35.8572 
11 *853:59 *1751:A2 28.4643 
12 *853:59 *853:74 36.25 
13 *853:74 *1925:A2 5 
14 *853:74 *853:85 42.6072 
15 *853:85 *1894:A2 22.7857 
16 *853:85 *1815:A2 9.25 
17 *853:4 *1795:A2 7.67857 
*END

*D_NET *854 0.000843615
*CONN
*I *1783:A1 I *D NAND4_X1
*I *1751:ZN O *D NAND2_X1
*CAP
1 *1783:A1 0.000170276
2 *1751:ZN 0.000170276
3 *1783:A1 *1783:A2 4.21607e-06
4 *1783:A1 *1783:A4 1.28577e-06
5 *1783:A1 *2068:A2 0
6 *1783:A1 *968:10 3.66826e-05
7 *1783:A1 *1303:390 0.00026177
8 *1783:A1 *1303:712 0.000157025
9 *1783:A1 *1316:40 3.96032e-05
10 *1439:D *1783:A1 0
11 *1751:A2 *1783:A1 2.47905e-06
*RES
1 *1751:ZN *1783:A1 46.8929 
*END

*D_NET *856 7.00398e-05
*CONN
*I *1762:A1 I *D OAI22_X1
*I *1753:ZN O *D NOR2_X1
*CAP
1 *1762:A1 3.1919e-05
2 *1753:ZN 3.1919e-05
3 *1762:A1 *1762:A2 2.75346e-06
4 *1762:A1 *1762:B2 2.60522e-06
5 *1762:A1 *1062:82 8.43215e-07
6 *837:483 *1762:A1 0
*RES
1 *1753:ZN *1762:A1 13.5357 
*END

*D_NET *859 0.00021164
*CONN
*I *1762:A2 I *D OAI22_X1
*I *1756:ZN O *D OAI21_X1
*CAP
1 *1762:A2 4.07409e-05
2 *1756:ZN 4.07409e-05
3 *1762:A2 *1762:B1 6.85774e-07
4 *1762:A2 *1762:B2 8.29353e-06
5 *1762:A2 *1763:A1 1.14339e-05
6 *1762:A2 *1062:82 7.10784e-07
7 *1761:A1 *1762:A2 0.000104879
8 *1762:A1 *1762:A2 2.75346e-06
9 *837:472 *1762:A2 1.40196e-06
*RES
1 *1756:ZN *1762:A2 26.4286 
*END

*D_NET *862 0.000963933
*CONN
*I *1762:B1 I *D OAI22_X1
*I *1759:ZN O *D OAI21_X1
*CAP
1 *1762:B1 0.000123808
2 *1759:ZN 0.000123808
3 *1762:B1 *1762:B2 2.4355e-06
4 *1762:B1 *1062:82 1.13365e-05
5 *1762:B1 *1280:370 4.38402e-05
6 *1762:B1 *1298:48 0.000413506
7 *1762:B1 *1308:37 0.000209
8 *1407:D *1762:B1 3.55125e-05
9 *1762:A2 *1762:B1 6.85774e-07
10 *837:457 *1762:B1 0
*RES
1 *1759:ZN *1762:B1 45.4643 
*END

*D_NET *864 0.00045176
*CONN
*I *1762:B2 I *D OAI22_X1
*I *1761:ZN O *D NOR2_X1
*CAP
1 *1762:B2 0.000165403
2 *1761:ZN 0.000165403
3 *1762:B2 *1062:82 3.09143e-06
4 *1762:B2 *1280:370 5.33113e-06
5 *1762:B2 *1280:385 1.87392e-05
6 *1762:B2 *1308:20 0
7 *1761:A1 *1762:B2 2.39979e-05
8 *1762:A1 *1762:B2 2.60522e-06
9 *1762:A2 *1762:B2 8.29353e-06
10 *1762:B1 *1762:B2 2.4355e-06
11 *1971:A1 *1762:B2 5.64598e-05
*RES
1 *1761:ZN *1762:B2 41.5714 
*END

*D_NET *865 0.000637017
*CONN
*I *1763:A1 I *D NAND2_X1
*I *1762:ZN O *D OAI22_X1
*CAP
1 *1763:A1 0.000165703
2 *1762:ZN 0.000165703
3 *1763:A1 *1411:CK 2.52965e-06
4 *1763:A1 *2023:A2 9.22959e-05
5 *1763:A1 *1280:370 0
6 *1763:A1 *1298:61 0
7 *1763:A1 *1308:14 0
8 *1763:A1 *1308:20 0
9 *1753:A2 *1763:A1 0.000193363
10 *1761:A1 *1763:A1 1.90574e-06
11 *1762:A2 *1763:A1 1.14339e-05
12 *636:87 *1763:A1 2.39679e-06
13 *636:98 *1763:A1 1.68643e-06
*RES
1 *1762:ZN *1763:A1 42.0357 
*END

*D_NET *866 0.00254606
*CONN
*I *1783:A2 I *D NAND4_X1
*I *1763:ZN O *D NAND2_X1
*CAP
1 *1783:A2 1.09858e-05
2 *1763:ZN 0
3 *866:8 0.000745729
4 *866:6 0.000734743
5 *1783:A2 *1783:A4 4.78054e-06
6 *866:8 *1351:CK 0
7 *866:8 *1463:CK 0
8 *866:8 *2023:A2 9.22998e-06
9 *866:8 *968:10 0.000323138
10 *866:8 *1298:74 2.2802e-05
11 *866:8 *1303:352 5.84806e-05
12 *866:8 *1303:379 1.40237e-05
13 *866:8 *1303:390 5.31631e-06
14 *866:8 *1316:44 0.000128615
15 *866:8 *1316:60 0.000396479
16 *1351:D *866:8 2.97112e-05
17 *1777:A *866:8 3.42187e-06
18 *1777:B2 *866:8 4.04964e-06
19 *1783:A1 *1783:A2 4.21607e-06
20 *2143:A2 *866:8 8.51124e-06
21 *2144:A1 *866:8 0
22 *2144:A2 *866:8 3.34509e-06
23 *609:35 *866:8 3.84855e-05
*RES
1 *1763:ZN *866:6 10 
2 *866:6 *866:8 99.3215 
3 *866:8 *1783:A2 11.25 
*END

*D_NET *868 0.000185033
*CONN
*I *1772:A1 I *D OAI22_X1
*I *1765:ZN O *D OAI21_X1
*CAP
1 *1772:A1 5.26066e-05
2 *1765:ZN 5.26066e-05
3 *1772:A1 *1767:A1 7.72792e-06
4 *1772:A1 *1772:A2 1.92086e-05
5 *1772:A1 *1772:B1 2.24822e-06
6 *1772:A1 *1772:B2 0
7 *593:35 *1772:A1 5.06354e-05
*RES
1 *1765:ZN *1772:A1 18.2857 
*END

*D_NET *870 0.000216183
*CONN
*I *1772:A2 I *D OAI22_X1
*I *1767:ZN O *D NOR2_X1
*CAP
1 *1772:A2 6.31469e-05
2 *1767:ZN 6.31469e-05
3 *1772:A2 *1767:A1 6.15835e-05
4 *1772:A1 *1772:A2 1.92086e-05
5 *593:29 *1772:A2 6.38784e-06
6 *593:35 *1772:A2 2.70903e-06
*RES
1 *1767:ZN *1772:A2 19.4286 
*END

*D_NET *873 0.000229873
*CONN
*I *1772:B1 I *D OAI22_X1
*I *1770:ZN O *D OAI21_X1
*CAP
1 *1772:B1 7.0245e-05
2 *1770:ZN 7.0245e-05
3 *1772:B1 *1767:A1 7.72792e-06
4 *1772:B1 *1772:B2 3.76675e-05
5 *1772:B1 *1774:A1 2.18035e-05
6 *1772:B1 *876:75 1.44148e-05
7 *1770:A *1772:B1 8.94068e-08
8 *1772:A1 *1772:B1 2.24822e-06
9 *593:35 *1772:B1 0
10 *595:166 *1772:B1 5.43152e-06
*RES
1 *1770:ZN *1772:B1 29.4286 
*END

*D_NET *874 0.000254386
*CONN
*I *1772:B2 I *D OAI22_X1
*I *1771:ZN O *D NOR2_X1
*CAP
1 *1772:B2 7.99437e-05
2 *1771:ZN 7.99437e-05
3 *1772:B2 *1090:52 4.8503e-05
4 *1772:A1 *1772:B2 0
5 *1772:B1 *1772:B2 3.76675e-05
6 *593:35 *1772:B2 6.56185e-06
7 *593:43 *1772:B2 1.76665e-06
*RES
1 *1771:ZN *1772:B2 20.4286 
*END

*D_NET *875 0.00037672
*CONN
*I *1774:A1 I *D NAND2_X1
*I *1772:ZN O *D OAI22_X1
*CAP
1 *1774:A1 0.000113182
2 *1772:ZN 0.000113182
3 *1774:A1 *1767:A1 3.91587e-05
4 *1774:A1 *2031:A1 4.31693e-05
5 *1774:A1 *876:75 0
6 *1774:A1 *1027:10 4.26343e-05
7 *1772:B1 *1774:A1 2.18035e-05
8 *595:166 *1774:A1 3.59026e-06
*RES
1 *1772:ZN *1774:A1 34.6786 
*END

*D_NET *876 0.0107291
*CONN
*I *1855:A2 I *D NAND2_X1
*I *1774:A2 I *D NAND2_X1
*I *1931:A2 I *D NAND2_X1
*I *1827:A2 I *D NAND2_X1
*I *1906:A2 I *D NAND2_X1
*I *1881:A2 I *D NAND2_X1
*I *2270:A2 I *D NAND2_X1
*I *1802:A2 I *D NAND2_X1
*I *1773:ZN O *D NOR2_X1
*CAP
1 *1855:A2 0
2 *1774:A2 4.61838e-06
3 *1931:A2 0
4 *1827:A2 0.000212687
5 *1906:A2 7.10265e-05
6 *1881:A2 7.14413e-06
7 *2270:A2 0
8 *1802:A2 0
9 *1773:ZN 0
10 *876:91 0.000641091
11 *876:81 0.000546205
12 *876:75 0.00075233
13 *876:58 0.0010982
14 *876:43 0.000770144
15 *876:33 0.000430491
16 *876:27 0.000302125
17 *876:23 0.000531905
18 *876:21 0.000428488
19 *876:12 4.63025e-05
20 *876:8 0.000555007
21 *876:6 0.000514891
22 *1774:A2 *2031:A1 7.19036e-06
23 *1774:A2 *2067:A1 2.39679e-06
24 *1827:A2 *1827:A1 3.09143e-06
25 *1827:A2 *1905:A1 0
26 *1827:A2 *2070:A1 2.30863e-05
27 *1827:A2 *991:8 2.16578e-05
28 *1827:A2 *1113:65 0
29 *1827:A2 *1113:91 0
30 *1827:A2 *1317:19 4.14195e-05
31 *1881:A2 *1888:A3 3.32296e-06
32 *1906:A2 *1905:B1 4.64381e-06
33 *1906:A2 *1906:A1 1.28122e-06
34 *1906:A2 *1113:65 0
35 *1906:A2 *1317:19 4.56104e-05
36 *876:8 *1749:A1 0
37 *876:8 *1749:A2 8.45319e-07
38 *876:8 *1773:A2 2.69048e-07
39 *876:8 *1805:B1 1.11499e-05
40 *876:8 *1061:10 6.50033e-06
41 *876:8 *1061:23 6.99073e-06
42 *876:8 *1061:38 5.13904e-05
43 *876:8 *1087:16 0.000168745
44 *876:8 *1087:25 4.43389e-05
45 *876:8 *1100:45 6.60763e-05
46 *876:8 *1303:76 9.57497e-06
47 *876:8 *1303:85 0.00017263
48 *876:8 *1303:239 6.87818e-06
49 *876:12 *1802:A1 7.19245e-05
50 *876:21 *1802:A1 8.43215e-07
51 *876:23 *1809:A2 0.000157019
52 *876:23 *1809:A3 4.44127e-06
53 *876:27 *1855:A1 0.000149415
54 *876:27 *1111:57 0
55 *876:33 *2057:A1 2.3767e-06
56 *876:33 *1102:8 3.43034e-05
57 *876:43 *2266:A 1.00295e-05
58 *876:43 *2354:A1 6.92404e-05
59 *876:43 *2357:A1 5.3213e-05
60 *876:43 *1100:86 3.43212e-05
61 *876:43 *1100:88 1.04663e-05
62 *876:43 *1102:12 0.000143199
63 *876:43 *1102:18 2.08098e-06
64 *876:43 *1299:123 9.76549e-06
65 *876:58 *2357:A1 1.74205e-05
66 *876:58 *1100:88 1.07733e-05
67 *876:75 *1783:A3 2.51997e-05
68 *876:75 *968:10 9.57979e-05
69 *876:75 *1113:46 4.43868e-06
70 *876:81 *1783:A3 3.07768e-05
71 *876:81 *1931:A1 9.26031e-06
72 *876:81 *2031:A1 2.19823e-05
73 *876:81 *2067:A1 7.72792e-06
74 *876:81 *1027:10 0
75 *876:81 *1292:119 0
76 *876:91 *1292:171 1.21448e-05
77 *1423:D *876:81 3.96215e-05
78 *1770:A *876:75 5.05238e-06
79 *1770:B2 *876:75 7.98429e-05
80 *1770:B2 *876:81 2.96955e-05
81 *1772:B1 *876:75 1.44148e-05
82 *1774:A1 *876:75 0
83 *1815:A2 *1827:A2 4.15825e-06
84 *1903:A *1906:A2 2.23415e-06
85 *2046:A2 *876:12 4.85556e-05
86 *2197:A1 *876:12 2.16072e-07
87 *2197:A1 *876:21 1.18589e-06
88 *2197:A2 *876:12 3.19164e-07
89 *2264:A2 *876:58 1.99763e-05
90 *2268:A2 *876:43 7.27894e-06
91 *2270:A1 *876:58 0
92 *2277:A2 *876:58 9.54739e-06
93 *2277:A3 *876:58 2.9019e-05
94 *2356:A2 *876:43 1.45805e-05
95 *150:10 *876:33 0.000637036
96 *448:10 *876:12 1.53834e-05
97 *493:8 *876:58 7.19948e-05
98 *595:166 *876:75 3.0781e-06
99 *595:166 *876:91 0.000815572
100 *598:274 *876:91 5.88059e-05
101 *631:10 *876:8 1.12235e-05
102 *811:143 *1827:A2 4.50059e-05
103 *852:36 *876:23 9.28844e-05
104 *852:49 *876:23 4.18301e-05
105 *853:12 *876:23 0
106 *853:14 *876:23 0
107 *853:27 *876:43 2.94041e-05
108 *853:85 *1827:A2 1.28122e-06
*RES
1 *1773:ZN *876:6 10 
2 *876:6 *876:8 74.2143 
3 *876:8 *876:12 12.25 
4 *876:12 *1802:A2 5 
5 *876:12 *876:21 5.75 
6 *876:21 *876:23 49.7857 
7 *876:23 *876:27 19.25 
8 *876:27 *876:33 43.5 
9 *876:33 *876:43 43.4643 
10 *876:43 *2270:A2 5 
11 *876:43 *876:58 37.87 
12 *876:58 *1881:A2 15.6429 
13 *876:58 *876:75 43.9214 
14 *876:75 *876:81 27.3572 
15 *876:81 *876:91 34.3686 
16 *876:91 *1906:A2 18.5357 
17 *876:91 *1827:A2 35.75 
18 *876:81 *1931:A2 5 
19 *876:75 *1774:A2 10.75 
20 *876:27 *1855:A2 5 
*END

*D_NET *877 0.00061083
*CONN
*I *1783:A3 I *D NAND4_X1
*I *1774:ZN O *D NAND2_X1
*CAP
1 *1783:A3 0.000130519
2 *1774:ZN 0.000130519
3 *1783:A3 *2068:A2 7.75525e-05
4 *1783:A3 *968:10 1.43544e-05
5 *1783:A3 *1316:44 0.000196797
6 *1770:B2 *1783:A3 5.11191e-06
7 *876:75 *1783:A3 2.51997e-05
8 *876:81 *1783:A3 3.07768e-05
*RES
1 *1774:ZN *1783:A3 40.9286 
*END

*D_NET *878 0.000377658
*CONN
*I *1780:A1 I *D OAI22_X1
*I *1775:ZN O *D OAI21_X1
*CAP
1 *1780:A1 4.9601e-05
2 *1775:ZN 4.9601e-05
3 *1780:A1 *1780:A2 2.75346e-06
4 *1780:A1 *1780:B1 9.28375e-05
5 *1780:A1 *1780:B2 2.16072e-07
6 *1780:A1 *1782:A1 6.99525e-06
7 *1780:A1 *880:16 2.12009e-06
8 *1780:A1 *1303:352 0.000131574
9 *1780:A1 *1303:379 3.84423e-05
10 *1780:A1 *1316:60 1.3143e-06
11 *424:37 *1780:A1 6.82202e-07
12 *593:78 *1780:A1 1.52083e-06
*RES
1 *1775:ZN *1780:A1 29.8214 
*END

*D_NET *879 0.000103239
*CONN
*I *1780:A2 I *D OAI22_X1
*I *1776:ZN O *D NOR2_X1
*CAP
1 *1780:A2 3.18996e-05
2 *1776:ZN 3.18996e-05
3 *1780:A2 *1780:B2 3.35062e-06
4 *1780:A2 *1782:A1 1.45671e-05
5 *1780:A2 *1316:60 8.43215e-07
6 *1776:A2 *1780:A2 1.74934e-05
7 *1780:A1 *1780:A2 2.75346e-06
8 *391:20 *1780:A2 4.32144e-07
*RES
1 *1776:ZN *1780:A2 24.0357 
*END

*D_NET *880 0.000794626
*CONN
*I *1780:B1 I *D OAI22_X1
*I *1777:ZN O *D OAI21_X1
*CAP
1 *1780:B1 2.56391e-05
2 *1777:ZN 0.000218122
3 *880:16 0.000243761
4 *880:16 *1351:CK 2.84765e-06
5 *880:16 *1463:CK 2.12898e-05
6 *880:16 *1464:CK 7.10056e-06
7 *880:16 *1777:B1 7.63212e-06
8 *880:16 *1780:B2 0
9 *880:16 *1298:80 1.40717e-05
10 *880:16 *1298:97 4.28435e-05
11 *880:16 *1310:44 1.08321e-05
12 *880:16 *1316:60 0
13 *1775:B2 *880:16 6.30459e-06
14 *1780:A1 *1780:B1 9.28375e-05
15 *1780:A1 *880:16 2.12009e-06
16 *389:37 *880:16 2.91282e-05
17 *391:20 *1780:B1 2.9243e-05
18 *391:20 *880:16 1.32323e-05
19 *593:78 *880:16 2.76199e-05
*RES
1 *1777:ZN *880:16 48.8572 
2 *880:16 *1780:B1 15 
*END

*D_NET *882 0.000523018
*CONN
*I *1780:B2 I *D OAI22_X1
*I *1779:ZN O *D NOR2_X1
*CAP
1 *1780:B2 0.000165373
2 *1779:ZN 0.000165373
3 *1780:B2 *2160:A1 2.31997e-05
4 *1780:B2 *884:53 0
5 *1780:B2 *1316:60 1.87256e-05
6 *1780:A1 *1780:B2 2.16072e-07
7 *1780:A2 *1780:B2 3.35062e-06
8 *2106:A2 *1780:B2 2.47397e-05
9 *2107:A1 *1780:B2 2.75346e-06
10 *135:10 *1780:B2 5.90628e-05
11 *389:37 *1780:B2 0
12 *391:20 *1780:B2 3.78407e-05
13 *424:37 *1780:B2 2.2384e-05
14 *880:16 *1780:B2 0
*RES
1 *1779:ZN *1780:B2 41.3572 
*END

*D_NET *883 0.000337355
*CONN
*I *1782:A1 I *D NAND2_X1
*I *1780:ZN O *D OAI22_X1
*CAP
1 *1782:A1 7.4212e-05
2 *1780:ZN 7.4212e-05
3 *1782:A1 *884:55 2.52965e-06
4 *1782:A1 *884:62 8.43215e-07
5 *1782:A1 *1303:379 4.11276e-05
6 *1782:A1 *1303:390 0.000114157
7 *1782:A1 *1316:60 1.52083e-06
8 *1780:A1 *1782:A1 6.99525e-06
9 *1780:A2 *1782:A1 1.45671e-05
10 *426:8 *1782:A1 7.19036e-06
*RES
1 *1780:ZN *1782:A1 30.5 
*END

*D_NET *884 0.00732865
*CONN
*I *1919:A2 I *D NAND2_X1
*I *1833:A2 I *D NAND2_X1
*I *1912:A2 I *D NAND2_X1
*I *1869:A2 I *D NAND2_X1
*I *1782:A2 I *D NAND2_X1
*I *2258:A2 I *D NAND2_X1
*I *1862:A2 I *D NAND2_X1
*I *1789:A2 I *D NAND2_X1
*I *1781:ZN O *D NOR2_X1
*CAP
1 *1919:A2 8.71307e-06
2 *1833:A2 0
3 *1912:A2 4.94195e-05
4 *1869:A2 1.75013e-05
5 *1782:A2 0
6 *2258:A2 0
7 *1862:A2 0
8 *1789:A2 5.22385e-06
9 *1781:ZN 0
10 *884:79 0.000370605
11 *884:75 0.000633418
12 *884:62 0.000369099
13 *884:55 8.95258e-05
14 *884:53 0.000449617
15 *884:44 0.000738717
16 *884:29 0.000518599
17 *884:27 0.000444875
18 *884:14 0.000537871
19 *884:8 0.000793804
20 *884:6 0.00051798
21 *1912:A2 *1912:A1 3.61453e-06
22 *884:8 *1406:CK 0
23 *884:8 *1087:16 4.17551e-05
24 *884:8 *1087:25 4.61233e-05
25 *884:8 *1087:36 4.44496e-06
26 *884:29 *1862:A1 1.21774e-06
27 *884:29 *962:12 8.05749e-05
28 *884:29 *1295:147 0
29 *884:29 *1306:135 0
30 *884:44 *1452:CK 0
31 *884:44 *1858:A 4.9678e-06
32 *884:44 *1858:B1 6.21633e-06
33 *884:44 *1861:A 8.4197e-06
34 *884:44 *1862:A1 4.23789e-05
35 *884:44 *1295:147 1.26074e-05
36 *884:44 *1299:102 0
37 *884:53 *1472:A 0
38 *884:53 *2160:A1 0
39 *884:53 *1278:18 0
40 *884:62 *968:8 7.09711e-06
41 *884:75 *2175:A1 7.19036e-06
42 *884:79 *1353:CK 4.73563e-05
43 *884:79 *1833:A1 2.39679e-06
44 *1353:D *884:79 5.11574e-06
45 *1779:A1 *884:53 5.11574e-06
46 *1780:B2 *884:53 0
47 *1781:A1 *884:8 1.72405e-05
48 *1782:A1 *884:55 2.52965e-06
49 *1782:A1 *884:62 8.43215e-07
50 *1986:A *884:8 9.26282e-06
51 *2112:A *884:44 0
52 *2162:A2 *884:53 1.14748e-05
53 *2163:A1 *884:53 1.60038e-06
54 *2173:A1 *1912:A2 2.75346e-06
55 *2174:A *1912:A2 3.09143e-06
56 *2174:A *884:79 0
57 *2175:A2 *884:75 1.96191e-05
58 *2176:A2 *884:79 0
59 *2177:A1 *884:75 3.90865e-05
60 *2177:A1 *884:79 4.77061e-05
61 *2258:A1 *884:44 1.21774e-06
62 *2258:A1 *884:53 4.57435e-05
63 *132:8 *884:44 0
64 *135:10 *884:53 0
65 *150:10 *884:27 0
66 *376:14 *884:14 2.42148e-07
67 *388:8 *884:8 0.000821861
68 *424:33 *884:53 0
69 *424:37 *1869:A2 0
70 *424:37 *884:53 0
71 *424:37 *884:55 0
72 *424:37 *884:62 0
73 *424:37 *884:75 0
74 *424:84 *884:29 0
75 *426:8 *884:53 0.000228025
76 *426:8 *884:55 6.94228e-06
77 *426:8 *884:62 9.07534e-06
78 *426:8 *884:75 0.000188774
79 *426:41 *884:75 0
80 *426:47 *884:75 0
81 *436:14 *884:8 0
82 *853:12 *884:27 0
*RES
1 *1781:ZN *884:6 10 
2 *884:6 *884:8 73.0357 
3 *884:8 *884:14 19.45 
4 *884:14 *1789:A2 10.4286 
5 *884:14 *884:27 31.5357 
6 *884:27 *884:29 20.25 
7 *884:29 *1862:A2 5 
8 *884:29 *884:44 35.3214 
9 *884:44 *2258:A2 5 
10 *884:44 *884:53 47.8572 
11 *884:53 *884:55 4.25 
12 *884:55 *1782:A2 5 
13 *884:55 *884:62 5.75 
14 *884:62 *1869:A2 7.17857 
15 *884:62 *884:75 36.3572 
16 *884:75 *884:79 35.6786 
17 *884:79 *1912:A2 11.3929 
18 *884:79 *1833:A2 5 
19 *884:75 *1919:A2 5.92857 
*END

*D_NET *885 0.000428555
*CONN
*I *1783:A4 I *D NAND4_X1
*I *1782:ZN O *D NAND2_X1
*CAP
1 *1783:A4 0.000127775
2 *1782:ZN 0.000127775
3 *1783:A4 *1355:CK 0
4 *1783:A4 *968:10 6.00938e-05
5 *1783:A4 *1303:390 0.000106844
6 *1783:A1 *1783:A4 1.28577e-06
7 *1783:A2 *1783:A4 4.78054e-06
*RES
1 *1782:ZN *1783:A4 38.4286 
*END

*D_NET *886 0.000208257
*CONN
*I *1788:A1 I *D OAI22_X1
*I *1784:ZN O *D NOR2_X1
*CAP
1 *1788:A1 5.07072e-05
2 *1784:ZN 5.07072e-05
3 *1788:A1 *1788:A2 9.07548e-06
4 *1788:A1 *1788:B1 1.21774e-06
5 *1788:A1 *1788:B2 6.82202e-07
6 *1788:A1 *948:8 1.66972e-05
7 *1788:A1 *1306:135 3.01743e-05
8 *1784:A2 *1788:A1 1.77822e-05
9 *424:10 *1788:A1 1.9777e-05
10 *845:181 *1788:A1 1.14365e-05
*RES
1 *1784:ZN *1788:A1 29.1429 
*END

*D_NET *887 0.000350508
*CONN
*I *1788:A2 I *D OAI22_X1
*I *1785:ZN O *D OAI21_X1
*CAP
1 *1788:A2 4.60422e-05
2 *1785:ZN 4.60422e-05
3 *1788:A2 *1788:B1 0.000133083
4 *1788:A2 *1788:B2 1.11258e-05
5 *1788:A2 *1789:A1 8.43215e-07
6 *1788:A2 *948:8 1.43544e-05
7 *1788:A1 *1788:A2 9.07548e-06
8 *2127:A *1788:A2 8.19658e-05
9 *845:181 *1788:A2 7.9759e-06
*RES
1 *1785:ZN *1788:A2 29.8214 
*END

*D_NET *888 0.000661924
*CONN
*I *1788:B1 I *D OAI22_X1
*I *1786:ZN O *D OAI21_X1
*CAP
1 *1788:B1 7.55856e-05
2 *1786:ZN 7.55856e-05
3 *1788:B1 *1788:B2 2.75346e-06
4 *1788:B1 *1789:A1 7.19036e-06
5 *1788:B1 *948:8 0.000165535
6 *1788:B1 *1297:98 0.000106622
7 *1788:A1 *1788:B1 1.21774e-06
8 *1788:A2 *1788:B1 0.000133083
9 *2127:A *1788:B1 7.54779e-05
10 *2127:S *1788:B1 5.11191e-06
11 *389:23 *1788:B1 1.01993e-05
12 *837:80 *1788:B1 3.5628e-06
*RES
1 *1786:ZN *1788:B1 37.4286 
*END

*D_NET *889 6.61765e-05
*CONN
*I *1788:B2 I *D OAI22_X1
*I *1787:ZN O *D NOR2_X1
*CAP
1 *1788:B2 1.53431e-05
2 *1787:ZN 1.53431e-05
3 *1788:A1 *1788:B2 6.82202e-07
4 *1788:A2 *1788:B2 1.11258e-05
5 *1788:B1 *1788:B2 2.75346e-06
6 *837:80 *1788:B2 2.75346e-06
7 *837:97 *1788:B2 7.72537e-06
8 *845:181 *1788:B2 1.045e-05
*RES
1 *1787:ZN *1788:B2 22.3571 
*END

*D_NET *890 0.000338133
*CONN
*I *1789:A1 I *D NAND2_X1
*I *1788:ZN O *D OAI22_X1
*CAP
1 *1789:A1 0.000154931
2 *1788:ZN 0.000154931
3 *1789:A1 *1809:A1 1.18547e-06
4 *1788:A2 *1789:A1 8.43215e-07
5 *1788:B1 *1789:A1 7.19036e-06
6 *150:8 *1789:A1 1.06408e-05
7 *424:10 *1789:A1 0
8 *837:80 *1789:A1 8.41007e-06
9 *837:360 *1789:A1 0
*RES
1 *1788:ZN *1789:A1 26.1071 
*END

*D_NET *891 0.000151952
*CONN
*I *1809:A1 I *D NAND4_X1
*I *1789:ZN O *D NAND2_X1
*CAP
1 *1809:A1 5.86283e-05
2 *1789:ZN 5.86283e-05
3 *1809:A1 *1802:A1 0
4 *1789:A1 *1809:A1 1.18547e-06
5 *150:8 *1809:A1 2.31008e-05
6 *837:360 *1809:A1 1.04089e-05
*RES
1 *1789:ZN *1809:A1 17.2143 
*END

*D_NET *892 0.000111447
*CONN
*I *1794:A1 I *D OAI22_X1
*I *1790:ZN O *D NOR2_X1
*CAP
1 *1794:A1 3.64051e-05
2 *1790:ZN 3.64051e-05
3 *1794:A1 *1791:B1 3.19164e-07
4 *1794:A1 *1795:A1 3.12687e-05
5 *1790:A1 *1794:A1 5.8311e-06
6 *1790:A2 *1794:A1 0
7 *1791:B2 *1794:A1 1.21774e-06
*RES
1 *1790:ZN *1794:A1 14.1786 
*END

*D_NET *893 7.13824e-05
*CONN
*I *1794:A2 I *D OAI22_X1
*I *1791:ZN O *D OAI21_X1
*CAP
1 *1794:A2 5.70397e-06
2 *1791:ZN 5.70397e-06
3 *1794:A2 *1390:CK 2.99872e-05
4 *448:14 *1794:A2 2.99872e-05
*RES
1 *1791:ZN *1794:A2 21.6071 
*END

*D_NET *894 0.000579655
*CONN
*I *1794:B1 I *D OAI22_X1
*I *1792:ZN O *D OAI21_X1
*CAP
1 *1794:B1 0.000231297
2 *1792:ZN 0.000231297
3 *1794:B1 *1382:CK 8.43644e-06
4 *1794:B1 *1794:B2 2.75346e-06
5 *1794:B1 *1795:A1 1.30565e-05
6 *1794:B1 *1303:93 1.11168e-06
7 *1794:B1 *1303:108 2.4059e-05
8 *1374:D *1794:B1 2.50534e-05
9 *1382:D *1794:B1 0
10 *1791:B2 *1794:B1 1.60038e-06
11 *54:8 *1794:B1 3.01743e-06
12 *448:14 *1794:B1 3.79731e-05
*RES
1 *1792:ZN *1794:B1 48.2857 
*END

*D_NET *895 0.000164219
*CONN
*I *1794:B2 I *D OAI22_X1
*I *1793:ZN O *D NOR2_X1
*CAP
1 *1794:B2 6.71181e-05
2 *1793:ZN 6.71181e-05
3 *1794:B2 *1382:CK 7.72537e-06
4 *1794:B2 *1795:A1 6.67656e-06
5 *1794:B2 *1306:102 1.28272e-05
6 *1794:B1 *1794:B2 2.75346e-06
*RES
1 *1793:ZN *1794:B2 16.2857 
*END

*D_NET *896 0.000511745
*CONN
*I *1795:A1 I *D NAND2_X1
*I *1794:ZN O *D OAI22_X1
*CAP
1 *1795:A1 0.000173607
2 *1794:ZN 0.000173607
3 *1795:A1 *1809:A2 1.37673e-05
4 *1795:A1 *2064:A1 3.09143e-06
5 *1795:A1 *2064:A2 0
6 *1795:A1 *2083:A2 0
7 *1795:A1 *1297:112 1.04893e-05
8 *1790:A1 *1795:A1 2.58428e-06
9 *1790:A2 *1795:A1 4.99246e-05
10 *1791:B2 *1795:A1 1.86809e-06
11 *1794:A1 *1795:A1 3.12687e-05
12 *1794:B1 *1795:A1 1.30565e-05
13 *1794:B2 *1795:A1 6.67656e-06
14 *2215:A1 *1795:A1 8.94571e-06
15 *2239:A *1795:A1 2.28594e-05
16 *837:360 *1795:A1 0
*RES
1 *1794:ZN *1795:A1 31.25 
*END

*D_NET *897 0.000431097
*CONN
*I *1809:A2 I *D NAND4_X1
*I *1795:ZN O *D NAND2_X1
*CAP
1 *1809:A2 9.62979e-05
2 *1795:ZN 9.62979e-05
3 *1809:A2 *1809:A3 4.47828e-05
4 *1809:A2 *1297:112 3.19164e-07
5 *1795:A1 *1809:A2 1.37673e-05
6 *1795:A2 *1809:A2 1.25189e-05
7 *2159:A1 *1809:A2 2.78389e-06
8 *2197:A2 *1809:A2 0
9 *2215:A1 *1809:A2 2.61469e-06
10 *837:360 *1809:A2 4.69533e-06
11 *853:12 *1809:A2 0
12 *876:23 *1809:A2 0.000157019
*RES
1 *1795:ZN *1809:A2 33.8929 
*END

*D_NET *898 9.13239e-05
*CONN
*I *1801:A1 I *D OAI22_X1
*I *1796:ZN O *D NOR2_X1
*CAP
1 *1801:A1 3.10307e-05
2 *1796:ZN 3.10307e-05
3 *1801:A1 *1797:A 6.1617e-06
4 *1801:A1 *1801:A2 2.75346e-06
5 *1801:A1 *1801:B1 1.21774e-06
6 *1800:A1 *1801:A1 1.91297e-05
*RES
1 *1796:ZN *1801:A1 13.75 
*END

*D_NET *899 8.28184e-05
*CONN
*I *1801:A2 I *D OAI22_X1
*I *1797:ZN O *D OAI21_X1
*CAP
1 *1801:A2 3.09833e-05
2 *1797:ZN 3.09833e-05
3 *1801:A2 *1797:A 1.64551e-05
4 *1801:A2 *1801:B1 6.85774e-07
5 *1801:A2 *1801:B2 9.57492e-07
6 *1801:A1 *1801:A2 2.75346e-06
*RES
1 *1797:ZN *1801:A2 13.75 
*END

*D_NET *901 0.000293727
*CONN
*I *1801:B1 I *D OAI22_X1
*I *1799:ZN O *D OAI21_X1
*CAP
1 *1801:B1 9.37361e-05
2 *1799:ZN 9.37361e-05
3 *1801:B1 *1438:CK 1.41835e-05
4 *1801:B1 *1797:B1 0
5 *1801:B1 *1801:B2 7.72792e-06
6 *1801:B1 *1297:149 0
7 *1801:B1 *1306:58 1.50871e-05
8 *1799:A *1801:B1 1.11258e-05
9 *1800:A2 *1801:B1 5.62265e-05
10 *1801:A1 *1801:B1 1.21774e-06
11 *1801:A2 *1801:B1 6.85774e-07
*RES
1 *1799:ZN *1801:B1 32.5357 
*END

*D_NET *902 6.20675e-05
*CONN
*I *1801:B2 I *D OAI22_X1
*I *1800:ZN O *D NOR2_X1
*CAP
1 *1801:B2 2.39601e-05
2 *1800:ZN 2.39601e-05
3 *1800:A1 *1801:B2 5.46179e-06
4 *1800:A2 *1801:B2 0
5 *1801:A2 *1801:B2 9.57492e-07
6 *1801:B1 *1801:B2 7.72792e-06
*RES
1 *1800:ZN *1801:B2 12.8571 
*END

*D_NET *903 0.00112113
*CONN
*I *1802:A1 I *D NAND2_X1
*I *1801:ZN O *D OAI22_X1
*CAP
1 *1802:A1 0.000364859
2 *1801:ZN 1.82774e-05
3 *903:12 0.000383136
4 *1802:A1 *2202:B 8.22478e-06
5 *1802:A1 *1100:12 0
6 *1802:A1 *1280:120 7.56758e-05
7 *903:12 *1438:CK 4.24423e-05
8 *903:12 *1280:122 9.22998e-06
9 *1800:A1 *1802:A1 7.24761e-06
10 *1809:A1 *1802:A1 0
11 *448:10 *1802:A1 5.30856e-05
12 *837:360 *1802:A1 4.03274e-05
13 *837:362 *1802:A1 4.58595e-05
14 *876:12 *1802:A1 7.19245e-05
15 *876:21 *1802:A1 8.43215e-07
*RES
1 *1801:ZN *903:12 18.0357 
2 *903:12 *1802:A1 49.9286 
*END

*D_NET *904 0.000126467
*CONN
*I *1809:A3 I *D NAND4_X1
*I *1802:ZN O *D NAND2_X1
*CAP
1 *1809:A3 3.18176e-05
2 *1802:ZN 3.18176e-05
3 *1809:A3 *1809:A4 7.19036e-06
4 *1809:A2 *1809:A3 4.47828e-05
5 *2159:A1 *1809:A3 4.17885e-06
6 *2197:A2 *1809:A3 2.23871e-06
7 *876:23 *1809:A3 4.44127e-06
*RES
1 *1802:ZN *1809:A3 24.3571 
*END

*D_NET *905 0.000170084
*CONN
*I *1807:A1 I *D OAI22_X1
*I *1803:ZN O *D NOR2_X1
*CAP
1 *1807:A1 2.88043e-05
2 *1803:ZN 2.88043e-05
3 *1807:A1 *910:10 2.0679e-05
4 *1807:A1 *1295:75 0
5 *632:19 *1807:A1 9.17959e-05
*RES
1 *1803:ZN *1807:A1 25 
*END

*D_NET *906 0.000221249
*CONN
*I *1807:A2 I *D OAI22_X1
*I *1804:ZN O *D OAI21_X1
*CAP
1 *1807:A2 9.21874e-05
2 *1804:ZN 9.21874e-05
3 *1807:A2 *2007:A2 5.55614e-07
4 *1807:A2 *910:8 3.65322e-06
5 *1807:A2 *1074:16 5.00979e-06
6 *1807:A2 *1280:325 6.92775e-06
7 *1807:A2 *1295:75 1.83315e-05
8 *1808:A2 *1807:A2 2.39679e-06
*RES
1 *1804:ZN *1807:A2 20.1071 
*END

*D_NET *907 0.000373827
*CONN
*I *1807:B1 I *D OAI22_X1
*I *1805:ZN O *D OAI21_X1
*CAP
1 *1807:B1 0.000112727
2 *1805:ZN 0.000112727
3 *1807:B1 *1805:B1 4.33502e-05
4 *1807:B1 *2007:A2 1.87637e-06
5 *1807:B1 *1039:23 0
6 *1807:B1 *1062:17 4.38826e-05
7 *1807:B1 *1295:75 4.97446e-06
8 *632:19 *1807:B1 5.42892e-05
*RES
1 *1805:ZN *1807:B1 33.8214 
*END

*D_NET *908 0.000362551
*CONN
*I *1807:B2 I *D OAI22_X1
*I *1806:ZN O *D NOR2_X1
*CAP
1 *1807:B2 0.00012304
2 *1806:ZN 0.00012304
3 *1807:B2 *2007:A2 2.75346e-06
4 *1807:B2 *1075:14 1.29373e-05
5 *1807:B2 *1295:75 3.52954e-05
6 *632:19 *1807:B2 8.16216e-06
7 *636:52 *1807:B2 2.63435e-05
8 *837:40 *1807:B2 3.09795e-05
*RES
1 *1806:ZN *1807:B2 34.1786 
*END

*D_NET *909 0.000132149
*CONN
*I *1808:A1 I *D NAND2_X1
*I *1807:ZN O *D OAI22_X1
*CAP
1 *1808:A1 3.96139e-05
2 *1807:ZN 3.96139e-05
3 *1808:A1 *1075:14 3.65597e-06
4 *1808:A1 *1280:325 1.74934e-05
5 *1808:A2 *1808:A1 6.65423e-06
6 *632:19 *1808:A1 2.51177e-05
*RES
1 *1807:ZN *1808:A1 25.3929 
*END

*D_NET *910 0.00148989
*CONN
*I *1809:A4 I *D NAND4_X1
*I *1808:ZN O *D NAND2_X1
*CAP
1 *1809:A4 6.87197e-06
2 *1808:ZN 4.84558e-06
3 *910:10 0.000387005
4 *910:8 0.000384978
5 *910:8 *1280:325 3.09411e-06
6 *910:10 *1295:75 1.39232e-06
7 *1807:A1 *910:10 2.0679e-05
8 *1807:A2 *910:8 3.65322e-06
9 *1809:A3 *1809:A4 7.19036e-06
10 *2159:A1 *910:10 0.000153157
11 *2197:A2 *1809:A4 6.48216e-07
12 *388:23 *910:10 0.000159394
13 *388:32 *910:10 0.000256735
14 *632:19 *910:10 0.000100249
15 *852:36 *910:10 0
*RES
1 *1808:ZN *910:8 10.75 
2 *910:8 *910:10 55.8929 
3 *910:10 *1809:A4 10.75 
*END

*D_NET *911 0.000184262
*CONN
*I *1814:A1 I *D OAI22_X1
*I *1810:ZN O *D NOR2_X1
*CAP
1 *1814:A1 5.36202e-05
2 *1810:ZN 5.36202e-05
3 *1814:A1 *1814:A2 1.26998e-05
4 *1814:A1 *1814:B1 8.43215e-07
5 *1814:A1 *1814:B2 4.62359e-05
6 *1814:A1 *1893:A1 1.72426e-05
7 *1814:A1 *1893:B1 0
8 *1814:A1 *991:8 0
9 *1812:A *1814:A1 0
*RES
1 *1810:ZN *1814:A1 27.6071 
*END

*D_NET *912 0.000187731
*CONN
*I *1814:A2 I *D OAI22_X1
*I *1811:ZN O *D OAI21_X1
*CAP
1 *1814:A2 8.51174e-05
2 *1811:ZN 8.51174e-05
3 *1814:A2 *1893:A1 0
4 *1814:A2 *1893:B2 4.79658e-06
5 *1810:A1 *1814:A2 0
6 *1812:A *1814:A2 0
7 *1814:A1 *1814:A2 1.26998e-05
8 *609:171 *1814:A2 0
*RES
1 *1811:ZN *1814:A2 18.25 
*END

*D_NET *913 9.64981e-05
*CONN
*I *1814:B1 I *D OAI22_X1
*I *1812:ZN O *D OAI21_X1
*CAP
1 *1814:B1 4.66249e-05
2 *1812:ZN 4.66249e-05
3 *1814:B1 *1812:B1 1.76665e-06
4 *1814:B1 *1303:588 0
5 *1812:A *1814:B1 6.38328e-07
6 *1814:A1 *1814:B1 8.43215e-07
*RES
1 *1812:ZN *1814:B1 14.8929 
*END

*D_NET *914 0.000639947
*CONN
*I *1814:B2 I *D OAI22_X1
*I *1813:ZN O *D NOR2_X1
*CAP
1 *1814:B2 0.000204346
2 *1813:ZN 0.000204346
3 *1814:B2 *1893:A1 1.76693e-06
4 *1814:B2 *1893:B1 0
5 *1814:B2 *915:12 2.99872e-05
6 *1810:A1 *1814:B2 0.000129327
7 *1814:A1 *1814:B2 4.62359e-05
8 *473:46 *1814:B2 0
9 *811:170 *1814:B2 6.80758e-06
10 *837:325 *1814:B2 2.75346e-06
11 *837:334 *1814:B2 1.43761e-05
*RES
1 *1813:ZN *1814:B2 45.1072 
*END

*D_NET *915 0.000862428
*CONN
*I *1815:A1 I *D NAND2_X1
*I *1814:ZN O *D OAI22_X1
*CAP
1 *1815:A1 0
2 *1814:ZN 0
3 *915:12 0.000392835
4 *915:6 0.000392835
5 *915:12 *1827:A1 4.59278e-05
6 *915:12 *1893:B1 0
7 *915:12 *1319:139 0
8 *1362:D *915:12 0
9 *1814:B2 *915:12 2.99872e-05
10 *1815:A2 *915:12 8.43215e-07
11 *1824:B2 *915:12 0
12 *2193:A *915:12 0
13 *595:189 *915:12 0
14 *811:143 *915:12 0
*RES
1 *1814:ZN *915:6 10 
2 *915:6 *915:12 48.0714 
3 *915:12 *1815:A1 5 
*END

*D_NET *916 0.000591432
*CONN
*I *1834:A1 I *D NAND4_X1
*I *1815:ZN O *D NAND2_X1
*CAP
1 *1834:A1 0.000106376
2 *1815:ZN 0.000106376
3 *1834:A1 *1827:A1 4.24423e-05
4 *1834:A1 *1834:A3 0.000300504
5 *1834:A1 *2070:A1 2.69895e-05
6 *1834:A1 *992:12 8.74473e-06
7 *595:189 *1834:A1 0
*RES
1 *1815:ZN *1834:A1 38.5714 
*END

*D_NET *917 0.000216731
*CONN
*I *1820:A1 I *D OAI22_X1
*I *1816:ZN O *D NOR2_X1
*CAP
1 *1820:A1 8.06109e-05
2 *1816:ZN 8.06109e-05
3 *1820:A1 *1820:A2 2.39679e-06
4 *1820:A1 *1820:B1 5.52959e-06
5 *1820:A1 *998:10 2.69895e-05
6 *1820:A1 *1077:62 0
7 *1820:A1 *1077:64 0
8 *1816:A1 *1820:A1 2.05936e-05
*RES
1 *1816:ZN *1820:A1 30.1071 
*END

*D_NET *918 0.000308012
*CONN
*I *1820:A2 I *D OAI22_X1
*I *1817:ZN O *D OAI21_X1
*CAP
1 *1820:A2 0.000146992
2 *1817:ZN 0.000146992
3 *1820:A2 *1817:B1 9.64883e-06
4 *1820:A2 *1821:A1 2.16072e-07
5 *1820:A2 *1077:62 0
6 *1817:B2 *1820:A2 1.76665e-06
7 *1820:A1 *1820:A2 2.39679e-06
8 *636:107 *1820:A2 0
*RES
1 *1817:ZN *1820:A2 24.6786 
*END

*D_NET *919 0.000285093
*CONN
*I *1820:B1 I *D OAI22_X1
*I *1818:ZN O *D OAI21_X1
*CAP
1 *1820:B1 0.000120957
2 *1818:ZN 0.000120957
3 *1820:B1 *1820:B2 2.39679e-06
4 *1820:B1 *2022:A 0
5 *1820:A1 *1820:B1 5.52959e-06
6 *636:107 *1820:B1 3.52526e-05
*RES
1 *1818:ZN *1820:B1 24.1429 
*END

*D_NET *920 0.000328221
*CONN
*I *1820:B2 I *D OAI22_X1
*I *1819:ZN O *D NOR2_X1
*CAP
1 *1820:B2 0.000103406
2 *1819:ZN 0.000103406
3 *1820:B1 *1820:B2 2.39679e-06
4 *1821:A2 *1820:B2 2.51997e-05
5 *1900:A2 *1820:B2 9.1282e-05
6 *636:107 *1820:B2 2.52965e-06
*RES
1 *1819:ZN *1820:B2 31.3571 
*END

*D_NET *921 0.000126539
*CONN
*I *1821:A1 I *D NAND2_X1
*I *1820:ZN O *D OAI22_X1
*CAP
1 *1821:A1 2.86163e-05
2 *1820:ZN 2.86163e-05
3 *1821:A1 *922:18 1.11168e-06
4 *1821:A1 *998:10 2.57883e-05
5 *1821:A1 *1077:62 0
6 *1820:A2 *1821:A1 2.16072e-07
7 *1821:A2 *1821:A1 4.21902e-05
*RES
1 *1820:ZN *1821:A1 24.3929 
*END

*D_NET *922 0.00338949
*CONN
*I *1834:A2 I *D NAND4_X1
*I *1821:ZN O *D NAND2_X1
*CAP
1 *1834:A2 0
2 *1821:ZN 0
3 *922:24 0.000347799
4 *922:22 0.000363024
5 *922:18 0.000379535
6 *922:6 0.00036431
7 *922:18 *998:10 1.26896e-05
8 *922:18 *998:12 9.02529e-05
9 *922:18 *1311:47 0.000117755
10 *922:22 *1311:47 1.46625e-05
11 *922:22 *1311:118 1.52083e-06
12 *922:24 *1354:CK 1.06648e-05
13 *922:24 *1834:A3 6.99525e-06
14 *922:24 *1913:A3 0.000171058
15 *922:24 *1913:A4 0.000413059
16 *922:24 *934:10 0.000178385
17 *922:24 *992:12 4.52612e-06
18 *922:24 *998:12 5.10087e-06
19 *922:24 *1311:118 2.3879e-05
20 *1354:D *922:24 0.000157269
21 *1821:A1 *922:18 1.11168e-06
22 *1828:B2 *922:24 8.34049e-06
23 *1831:A1 *922:24 2.17135e-05
24 *1907:A *922:24 5.48932e-05
25 *1907:B1 *922:24 5.73616e-05
26 *1907:B2 *922:18 3.39527e-06
27 *1907:B2 *922:22 2.91785e-06
28 *1907:B2 *922:24 8.06325e-05
29 *1910:A2 *922:24 0.00026152
30 *2128:A1 *922:18 1.36362e-05
31 *2128:A1 *922:22 3.07768e-05
32 *2135:A2 *922:18 3.48838e-06
33 *2136:B2 *922:18 1.20697e-05
34 *146:10 *922:24 1.13134e-05
35 *593:137 *922:24 3.09722e-05
36 *609:56 *922:24 0.000132861
37 *811:82 *922:24 0
38 *811:91 *922:24 0
*RES
1 *1821:ZN *922:6 10 
2 *922:6 *922:18 49.8214 
3 *922:18 *922:22 3.03572 
4 *922:22 *922:24 69.4643 
5 *922:24 *1834:A2 10 
*END

*D_NET *923 0.000466376
*CONN
*I *1826:A1 I *D OAI22_X1
*I *1822:ZN O *D OAI21_X1
*CAP
1 *1826:A1 0.000169329
2 *1822:ZN 0.000169329
3 *1826:A1 *1826:A2 2.75346e-06
4 *1826:A1 *1826:B1 1.21774e-06
5 *1826:A1 *1826:B2 1.8553e-05
6 *1825:A1 *1826:A1 0.00010334
7 *1825:A2 *1826:A1 1.85291e-06
*RES
1 *1822:ZN *1826:A1 29.75 
*END

*D_NET *924 0.000199132
*CONN
*I *1826:A2 I *D OAI22_X1
*I *1823:ZN O *D NOR2_X1
*CAP
1 *1826:A2 9.31374e-05
2 *1823:ZN 9.31374e-05
3 *1826:A2 *1824:B1 0
4 *1826:A2 *1826:B1 6.91187e-06
5 *1826:A1 *1826:A2 2.75346e-06
6 *595:189 *1826:A2 3.19164e-06
*RES
1 *1823:ZN *1826:A2 19.6786 
*END

*D_NET *925 0.000114548
*CONN
*I *1826:B1 I *D OAI22_X1
*I *1824:ZN O *D OAI21_X1
*CAP
1 *1826:B1 4.50956e-05
2 *1824:ZN 4.50956e-05
3 *1826:B1 *1826:B2 2.75346e-06
4 *1826:A1 *1826:B1 1.21774e-06
5 *1826:A2 *1826:B1 6.91187e-06
6 *595:189 *1826:B1 1.34737e-05
*RES
1 *1824:ZN *1826:B1 15.3571 
*END

*D_NET *926 0.000223393
*CONN
*I *1826:B2 I *D OAI22_X1
*I *1825:ZN O *D NOR2_X1
*CAP
1 *1826:B2 9.34687e-05
2 *1825:ZN 9.34687e-05
3 *1826:A1 *1826:B2 1.8553e-05
4 *1826:B1 *1826:B2 2.75346e-06
5 *595:189 *1826:B2 1.51496e-05
6 *853:85 *1826:B2 0
*RES
1 *1825:ZN *1826:B2 20.1786 
*END

*D_NET *927 0.000238991
*CONN
*I *1827:A1 I *D NAND2_X1
*I *1826:ZN O *D OAI22_X1
*CAP
1 *1827:A1 6.91633e-05
2 *1826:ZN 6.91633e-05
3 *1815:A2 *1827:A1 2.52965e-06
4 *1827:A2 *1827:A1 3.09143e-06
5 *1834:A1 *1827:A1 4.24423e-05
6 *595:189 *1827:A1 6.67336e-06
7 *811:143 *1827:A1 0
8 *915:12 *1827:A1 4.59278e-05
*RES
1 *1826:ZN *1827:A1 29.8214 
*END

*D_NET *928 0.000553481
*CONN
*I *1834:A3 I *D NAND4_X1
*I *1827:ZN O *D NAND2_X1
*CAP
1 *1834:A3 0.000122033
2 *1827:ZN 0.000122033
3 *1834:A3 *1905:A2 1.91498e-06
4 *1834:A3 *992:12 0
5 *1834:A3 *1090:63 0
6 *1834:A1 *1834:A3 0.000300504
7 *2070:A2 *1834:A3 0
8 *922:24 *1834:A3 6.99525e-06
*RES
1 *1827:ZN *1834:A3 38.6429 
*END

*D_NET *929 0.000629944
*CONN
*I *1832:A1 I *D OAI22_X1
*I *1828:ZN O *D OAI21_X1
*CAP
1 *1832:A1 0.00015338
2 *1828:ZN 0.00015338
3 *1832:A1 *1832:B2 4.24423e-05
4 *1832:A1 *1911:A1 1.31175e-05
5 *1832:A1 *1911:A2 4.99246e-05
6 *1830:A *1832:A1 0.000132861
7 *391:68 *1832:A1 8.48377e-05
*RES
1 *1828:ZN *1832:A1 41.6429 
*END

*D_NET *930 0.000108192
*CONN
*I *1832:A2 I *D OAI22_X1
*I *1829:ZN O *D NOR2_X1
*CAP
1 *1832:A2 5.26787e-05
2 *1829:ZN 5.26787e-05
3 *1832:A2 *1832:B1 2.83434e-06
4 *426:77 *1832:A2 0
*RES
1 *1829:ZN *1832:A2 15.3571 
*END

*D_NET *931 0.000121259
*CONN
*I *1832:B1 I *D OAI22_X1
*I *1830:ZN O *D OAI21_X1
*CAP
1 *1832:B1 5.71304e-05
2 *1830:ZN 5.71304e-05
3 *1832:B1 *1830:B1 1.76665e-06
4 *1832:B1 *1832:B2 2.39679e-06
5 *1832:A2 *1832:B1 2.83434e-06
*RES
1 *1830:ZN *1832:B1 16.25 
*END

*D_NET *932 0.000379423
*CONN
*I *1832:B2 I *D OAI22_X1
*I *1831:ZN O *D NOR2_X1
*CAP
1 *1832:B2 0.000115972
2 *1831:ZN 0.000115972
3 *1832:B2 *1833:A1 0.00010264
4 *1832:A1 *1832:B2 4.24423e-05
5 *1832:B1 *1832:B2 2.39679e-06
*RES
1 *1831:ZN *1832:B2 36.6072 
*END

*D_NET *933 0.000518465
*CONN
*I *1833:A1 I *D NAND2_X1
*I *1832:ZN O *D OAI22_X1
*CAP
1 *1833:A1 0.000189368
2 *1832:ZN 0.000189368
3 *1833:A1 *1912:A1 0
4 *1831:A1 *1833:A1 3.46934e-05
5 *1832:B2 *1833:A1 0.00010264
6 *426:77 *1833:A1 0
7 *884:79 *1833:A1 2.39679e-06
*RES
1 *1832:ZN *1833:A1 43.8214 
*END

*D_NET *934 0.000887664
*CONN
*I *1834:A4 I *D NAND4_X1
*I *1833:ZN O *D NAND2_X1
*CAP
1 *1834:A4 1.28749e-05
2 *1833:ZN 0.000216166
3 *934:10 0.000229041
4 *1834:A4 *1905:A2 2.08416e-06
5 *934:10 *1913:A3 0.000171597
6 *934:10 *992:12 5.7086e-05
7 *811:91 *934:10 1.60637e-05
8 *811:104 *934:10 4.36651e-06
9 *922:24 *934:10 0.000178385
*RES
1 *1833:ZN *934:10 49.1786 
2 *934:10 *1834:A4 6.25 
*END

*D_NET *935 0.000205321
*CONN
*I *1836:B1 I *D AOI21_X1
*I *2206:B1 I *D OAI21_X1
*I *1835:ZN O *D INV_X1
*CAP
1 *1836:B1 8.62505e-06
2 *2206:B1 5.34308e-05
3 *1835:ZN 3.0269e-05
4 *935:8 9.23248e-05
5 *1836:B1 *1088:55 0
6 *1836:B1 *1280:183 2.75346e-06
7 *2206:B1 *1836:B2 5.87321e-06
8 *2206:B1 *1312:60 9.01846e-07
9 *935:8 *1088:55 0
10 *1372:D *2206:B1 2.75346e-06
11 *1372:D *935:8 0
12 *1835:A *2206:B1 0
13 *1835:A *935:8 1.04584e-06
14 *2206:A *2206:B1 6.50032e-06
15 *2206:B2 *2206:B1 8.43215e-07
*RES
1 *1835:ZN *935:8 8.17857 
2 *935:8 *2206:B1 11.25 
3 *935:8 *1836:B1 6.25 
*END

*D_NET *936 0.00091501
*CONN
*I *1837:A I *D OAI21_X1
*I *1836:ZN O *D AOI21_X1
*CAP
1 *1837:A 0.000190447
2 *1836:ZN 0.000190447
3 *1837:B2 *1837:A 1.83053e-06
4 *448:14 *1837:A 0.000429117
5 *448:25 *1837:A 5.1189e-05
6 *448:36 *1837:A 5.19786e-05
*RES
1 *1836:ZN *1837:A 49.3214 
*END

*D_NET *937 0.000315083
*CONN
*I *1840:A I *D OAI21_X1
*I *1837:ZN O *D OAI21_X1
*CAP
1 *1840:A 0.000139735
2 *1837:ZN 0.000139735
3 *1840:A *1840:B1 1.32348e-05
4 *1840:A *954:10 1.94964e-05
5 *1840:A *1303:179 2.88188e-06
*RES
1 *1837:ZN *1840:A 24.6786 
*END

*D_NET *938 0.000249651
*CONN
*I *1840:B1 I *D OAI21_X1
*I *1838:ZN O *D NOR2_X1
*CAP
1 *1840:B1 5.82524e-05
2 *1838:ZN 5.82524e-05
3 *1840:B1 *954:10 2.83077e-06
4 *1840:B1 *1100:45 7.24418e-05
5 *1838:A2 *1840:B1 6.99525e-06
6 *1840:A *1840:B1 1.32348e-05
7 *471:19 *1840:B1 3.76439e-05
*RES
1 *1838:ZN *1840:B1 31 
*END

*D_NET *939 0.000186671
*CONN
*I *1840:B2 I *D OAI21_X1
*I *1839:ZN O *D OAI21_X1
*CAP
1 *1840:B2 2.90095e-05
2 *1839:ZN 2.90095e-05
3 *1840:B2 *1100:45 2.24149e-05
4 *471:19 *1840:B2 0.000106237
*RES
1 *1839:ZN *1840:B2 25.6786 
*END

*D_NET *940 0.000233542
*CONN
*I *1841:A1 I *D NAND2_X1
*I *1840:ZN O *D OAI21_X1
*CAP
1 *1841:A1 0.000115506
2 *1840:ZN 0.000115506
3 *1841:A1 *1855:A1 0
4 *1841:A1 *954:10 2.52965e-06
*RES
1 *1840:ZN *1841:A1 21.3571 
*END

*D_NET *941 0.000325626
*CONN
*I *1863:A1 I *D NAND4_X1
*I *1841:ZN O *D NAND2_X1
*CAP
1 *1863:A1 0.000138086
2 *1841:ZN 0.000138086
3 *1863:A1 *1855:A1 3.52526e-05
4 *1863:A1 *1863:A3 6.47615e-06
5 *1863:A1 *1111:57 0
6 *148:8 *1863:A1 7.72537e-06
*RES
1 *1841:ZN *1863:A1 25.3571 
*END

*D_NET *942 0.000248099
*CONN
*I *1843:B1 I *D AOI21_X1
*I *1977:B1 I *D OAI21_X1
*I *1842:ZN O *D INV_X1
*CAP
1 *1843:B1 0
2 *1977:B1 3.31195e-05
3 *1842:ZN 3.11762e-05
4 *942:8 6.42958e-05
5 *1977:B1 *1843:B2 2.74386e-05
6 *942:8 *1843:A 2.39679e-06
7 *942:8 *1040:30 1.25189e-05
8 *1842:A *942:8 0
9 *1844:B2 *942:8 9.57492e-07
10 *633:21 *1977:B1 7.61956e-05
*RES
1 *1842:ZN *942:8 8.53572 
2 *942:8 *1977:B1 19.3214 
3 *942:8 *1843:B1 5 
*END

*D_NET *943 0.00022159
*CONN
*I *1844:A I *D OAI21_X1
*I *1843:ZN O *D AOI21_X1
*CAP
1 *1844:A 3.42596e-05
2 *1843:ZN 3.42596e-05
3 *1844:A *1843:A 1.72405e-05
4 *1844:A *1295:50 2.77222e-05
5 *1844:A *1303:874 2.75346e-06
6 *1844:A *1303:885 1.25189e-05
7 *633:21 *1844:A 9.28355e-05
*RES
1 *1843:ZN *1844:A 26.25 
*END

*D_NET *944 0.00102656
*CONN
*I *1847:A I *D OAI21_X1
*I *1844:ZN O *D OAI21_X1
*CAP
1 *1847:A 1.81786e-05
2 *1844:ZN 0
3 *944:8 0.000437448
4 *944:6 0.000419269
5 *1847:A *1847:B2 2.83434e-06
6 *1847:A *1848:A1 2.39679e-06
7 *944:8 *1843:B2 1.11168e-06
8 *944:8 *1847:B1 2.84765e-06
9 *944:8 *1847:B2 2.44962e-05
10 *944:8 *1995:A2 1.0164e-05
11 *944:8 *1062:21 1.95473e-05
12 *944:8 *1280:325 0
13 *944:8 *1295:50 0
14 *944:8 *1295:63 1.16909e-05
15 *944:8 *1295:100 3.47057e-06
16 *1845:A2 *1847:A 2.39679e-06
17 *1996:A *944:8 1.24557e-05
18 *633:19 *944:8 1.9887e-05
19 *633:21 *944:8 3.32454e-05
20 *636:67 *1847:A 1.28122e-06
21 *837:412 *1847:A 3.83453e-06
*RES
1 *1844:ZN *944:6 10 
2 *944:6 *944:8 49.7857 
3 *944:8 *1847:A 12.25 
*END

*D_NET *945 7.87051e-05
*CONN
*I *1847:B1 I *D OAI21_X1
*I *1845:ZN O *D NOR2_X1
*CAP
1 *1847:B1 1.68336e-05
2 *1845:ZN 1.68336e-05
3 *1847:B1 *1295:100 4.21902e-05
4 *944:8 *1847:B1 2.84765e-06
*RES
1 *1845:ZN *1847:B1 22.2857 
*END

*D_NET *946 0.000120708
*CONN
*I *1847:B2 I *D OAI21_X1
*I *1846:ZN O *D OAI21_X1
*CAP
1 *1847:B2 3.36959e-05
2 *1846:ZN 3.36959e-05
3 *1847:B2 *1295:63 5.56936e-06
4 *1847:B2 *1295:100 7.18184e-06
5 *1847:A *1847:B2 2.83434e-06
6 *636:67 *1847:B2 1.32348e-05
7 *944:8 *1847:B2 2.44962e-05
*RES
1 *1846:ZN *1847:B2 24.8929 
*END

*D_NET *947 0.000130576
*CONN
*I *1848:A1 I *D NAND2_X1
*I *1847:ZN O *D OAI21_X1
*CAP
1 *1848:A1 5.40609e-05
2 *1847:ZN 5.40609e-05
3 *1848:A1 *1280:325 2.39679e-06
4 *1847:A *1848:A1 2.39679e-06
5 *1848:A2 *1848:A1 6.56185e-06
6 *636:67 *1848:A1 5.00979e-06
7 *837:412 *1848:A1 6.0887e-06
*RES
1 *1847:ZN *1848:A1 16.2857 
*END

*D_NET *948 0.00257835
*CONN
*I *1863:A2 I *D NAND4_X1
*I *1848:ZN O *D NAND2_X1
*CAP
1 *1863:A2 2.73275e-05
2 *1848:ZN 0
3 *948:8 0.00074244
4 *948:6 0.000715113
5 *1863:A2 *2066:A 0
6 *1863:A2 *1111:61 2.56243e-06
7 *948:8 *1356:CK 6.16527e-05
8 *948:8 *962:12 4.06749e-05
9 *948:8 *1111:98 1.2752e-06
10 *948:8 *1295:164 3.38703e-05
11 *948:8 *1297:98 0.000169474
12 *948:8 *1297:106 0.000144628
13 *948:8 *1303:249 0.00015648
14 *1454:D *948:8 8.46291e-05
15 *1788:A1 *948:8 1.66972e-05
16 *1788:A2 *948:8 1.43544e-05
17 *1788:B1 *948:8 0.000165535
18 *1859:A2 *948:8 3.47708e-06
19 *148:8 *1863:A2 8.26038e-06
20 *424:10 *948:8 3.69961e-05
21 *424:21 *948:8 6.03616e-05
22 *424:84 *948:8 9.25412e-05
23 *837:76 *948:8 0
*RES
1 *1848:ZN *948:6 10 
2 *948:6 *948:8 104.75 
3 *948:8 *1863:A2 12.75 
*END

*D_NET *949 0.000269119
*CONN
*I *1850:B1 I *D AOI21_X1
*I *2055:B1 I *D OAI21_X1
*I *1849:ZN O *D INV_X1
*CAP
1 *1850:B1 3.0429e-05
2 *2055:B1 4.88862e-05
3 *1849:ZN 1.50803e-05
4 *949:6 9.43955e-05
5 *1850:B1 *1851:A 1.37673e-05
6 *1850:B1 *2054:A1 7.75269e-06
7 *1850:B1 *1280:175 2.75346e-06
8 *2055:B1 *2054:A1 2.42487e-05
9 *2055:B1 *2054:A2 2.94093e-05
10 *1849:A *2055:B1 2.39679e-06
11 *1849:A *949:6 0
*RES
1 *1849:ZN *949:6 6.60714 
2 *949:6 *2055:B1 20.8929 
3 *949:6 *1850:B1 8.75 
*END

*D_NET *950 0.000278728
*CONN
*I *1851:A I *D OAI21_X1
*I *1850:ZN O *D AOI21_X1
*CAP
1 *1851:A 9.76572e-05
2 *1850:ZN 9.76572e-05
3 *1851:A *1851:B1 2.39679e-06
4 *1851:A *2054:A1 4.25204e-05
5 *1851:A *1088:27 1.26998e-05
6 *1851:A *1280:175 1.20293e-05
7 *1850:B1 *1851:A 1.37673e-05
*RES
1 *1850:ZN *1851:A 22.4286 
*END

*D_NET *951 0.000733391
*CONN
*I *1854:A I *D OAI21_X1
*I *1851:ZN O *D OAI21_X1
*CAP
1 *1854:A 0.000157171
2 *1851:ZN 0.000157171
3 *1854:A *1850:B2 0
4 *1854:A *1854:B1 2.75346e-06
5 *1854:A *1088:23 0.000415656
6 *1854:A *1280:175 0
7 *1852:A1 *1854:A 6.38328e-07
*RES
1 *1851:ZN *1854:A 43.9643 
*END

*D_NET *952 8.15884e-05
*CONN
*I *1854:B1 I *D OAI21_X1
*I *1852:ZN O *D NOR2_X1
*CAP
1 *1854:B1 3.90594e-05
2 *1852:ZN 3.90594e-05
3 *1854:B1 *1839:A 0
4 *1854:B1 *954:10 7.16188e-07
5 *1852:A1 *1854:B1 0
6 *1854:A *1854:B1 2.75346e-06
*RES
1 *1852:ZN *1854:B1 14.2143 
*END

*D_NET *953 0.000286504
*CONN
*I *1854:B2 I *D OAI21_X1
*I *1853:ZN O *D OAI21_X1
*CAP
1 *1854:B2 6.39792e-05
2 *1853:ZN 6.39792e-05
3 *1854:B2 *1839:A 5.05929e-06
4 *1854:B2 *1853:B1 3.7484e-05
5 *1854:B2 *1280:160 8.58686e-06
6 *1854:B2 *1312:70 0
7 *1444:D *1854:B2 0
8 *376:27 *1854:B2 0.000107416
*RES
1 *1853:ZN *1854:B2 29.4286 
*END

*D_NET *954 0.00133876
*CONN
*I *1855:A1 I *D NAND2_X1
*I *1854:ZN O *D OAI21_X1
*CAP
1 *1855:A1 0.000154258
2 *1854:ZN 0.00038366
3 *954:10 0.000537917
4 *1855:A1 *1863:A3 7.29164e-07
5 *1855:A1 *1111:57 0
6 *954:10 *1444:CK 0
7 *954:10 *1839:A 0
8 *954:10 *1303:179 2.8284e-05
9 *1837:B2 *954:10 2.36738e-05
10 *1840:A *954:10 1.94964e-05
11 *1840:B1 *954:10 2.83077e-06
12 *1841:A1 *1855:A1 0
13 *1841:A1 *954:10 2.52965e-06
14 *1852:A1 *954:10 0
15 *1854:B1 *954:10 7.16188e-07
16 *1863:A1 *1855:A1 3.52526e-05
17 *876:27 *1855:A1 0.000149415
*RES
1 *1854:ZN *954:10 45 
2 *954:10 *1855:A1 25.1786 
*END

*D_NET *955 9.73199e-05
*CONN
*I *1863:A3 I *D NAND4_X1
*I *1855:ZN O *D NAND2_X1
*CAP
1 *1863:A3 4.34035e-05
2 *1855:ZN 4.34035e-05
3 *1863:A3 *1111:57 0
4 *1863:A3 *1111:61 2.16072e-07
5 *1855:A1 *1863:A3 7.29164e-07
6 *1863:A1 *1863:A3 6.47615e-06
7 *148:8 *1863:A3 3.09143e-06
*RES
1 *1855:ZN *1863:A3 14.6786 
*END

*D_NET *956 0.00068846
*CONN
*I *2131:B1 I *D OAI21_X1
*I *1857:B1 I *D AOI21_X1
*I *1856:ZN O *D INV_X1
*CAP
1 *2131:B1 0.000120696
2 *1857:B1 4.03722e-05
3 *1856:ZN 0
4 *956:4 0.000161069
5 *1857:B1 *1295:134 0.000119619
6 *2131:B1 *1295:124 5.53323e-05
7 *389:25 *1857:B1 0
8 *389:25 *2131:B1 0
9 *506:8 *2131:B1 1.00163e-05
10 *595:53 *1857:B1 0.00012016
11 *845:187 *1857:B1 2.21086e-05
12 *845:187 *2131:B1 3.90865e-05
*RES
1 *1856:ZN *956:4 5 
2 *956:4 *1857:B1 23.6071 
3 *956:4 *2131:B1 29.1786 
*END

*D_NET *957 0.000535777
*CONN
*I *1858:A I *D OAI21_X1
*I *1857:ZN O *D AOI21_X1
*CAP
1 *1858:A 0.000160237
2 *1857:ZN 0.000160237
3 *1858:A *1858:B1 2.39679e-06
4 *1858:A *1861:A 8.43215e-07
5 *1858:A *1861:B1 0
6 *1858:A *1295:134 5.94596e-05
7 *1858:A *1295:147 6.08836e-05
8 *1858:A *1299:104 0
9 *2113:A *1858:A 6.89712e-05
10 *595:53 *1858:A 1.77822e-05
11 *884:44 *1858:A 4.9678e-06
*RES
1 *1857:ZN *1858:A 42.5357 
*END

*D_NET *958 0.000100954
*CONN
*I *1861:A I *D OAI21_X1
*I *1858:ZN O *D OAI21_X1
*CAP
1 *1861:A 3.8902e-05
2 *1858:ZN 3.8902e-05
3 *1861:A *1861:B2 1.38871e-05
4 *1858:A *1861:A 8.43215e-07
5 *884:44 *1861:A 8.4197e-06
*RES
1 *1858:ZN *1861:A 14.9286 
*END

*D_NET *959 0.000228339
*CONN
*I *1861:B1 I *D OAI21_X1
*I *1859:ZN O *D NOR2_X1
*CAP
1 *1861:B1 9.58749e-05
2 *1859:ZN 9.58749e-05
3 *1861:B1 *1295:147 6.87788e-06
4 *1861:B1 *1299:104 2.97112e-05
5 *1858:A *1861:B1 0
*RES
1 *1859:ZN *1861:B1 30.7857 
*END

*D_NET *960 0.000168018
*CONN
*I *1861:B2 I *D OAI21_X1
*I *1860:ZN O *D OAI21_X1
*CAP
1 *1861:B2 6.89891e-05
2 *1860:ZN 6.89891e-05
3 *1861:B2 *1299:102 0
4 *1861:A *1861:B2 1.38871e-05
5 *2112:A *1861:B2 1.61523e-05
*RES
1 *1860:ZN *1861:B2 18.0714 
*END

*D_NET *961 0.000199723
*CONN
*I *1862:A1 I *D NAND2_X1
*I *1861:ZN O *D OAI21_X1
*CAP
1 *1862:A1 7.8063e-05
2 *1861:ZN 7.8063e-05
3 *1862:A1 *1295:147 0
4 *884:29 *1862:A1 1.21774e-06
5 *884:44 *1862:A1 4.23789e-05
*RES
1 *1861:ZN *1862:A1 19.1786 
*END

*D_NET *962 0.000880316
*CONN
*I *1863:A4 I *D NAND4_X1
*I *1862:ZN O *D NAND2_X1
*CAP
1 *1863:A4 0
2 *1862:ZN 0.000226
3 *962:12 0.000226
4 *962:12 *1111:57 4.26902e-05
5 *962:12 *1111:98 3.02372e-05
6 *962:12 *1295:147 0
7 *962:12 *1295:164 0.000191699
8 *2169:B2 *962:12 4.24402e-05
9 *424:84 *962:12 0
10 *884:29 *962:12 8.05749e-05
11 *948:8 *962:12 4.06749e-05
*RES
1 *1862:ZN *962:12 46.0714 
2 *962:12 *1863:A4 5 
*END

*D_NET *963 0.000151715
*CONN
*I *1868:A1 I *D OAI22_X1
*I *1864:ZN O *D NOR2_X1
*CAP
1 *1868:A1 6.74898e-05
2 *1864:ZN 6.74898e-05
3 *1868:A1 *1868:B1 4.21607e-06
4 *1868:A1 *964:12 1.25189e-05
5 *2175:A2 *1868:A1 0
6 *609:45 *1868:A1 0
*RES
1 *1864:ZN *1868:A1 17.0357 
*END

*D_NET *964 0.00102746
*CONN
*I *1868:A2 I *D OAI22_X1
*I *1865:ZN O *D OAI21_X1
*CAP
1 *1868:A2 0
2 *1865:ZN 0.000186917
3 *964:12 0.000186917
4 *964:12 *2170:A1 0.00021908
5 *964:12 *1294:108 0.000338946
6 *1868:A1 *964:12 1.25189e-05
7 *2115:A2 *964:12 6.70962e-05
8 *2175:A2 *964:12 0
9 *403:12 *964:12 1.32292e-05
10 *424:37 *964:12 2.75346e-06
*RES
1 *1865:ZN *964:12 45.6786 
2 *964:12 *1868:A2 5 
*END

*D_NET *965 7.49641e-05
*CONN
*I *1868:B1 I *D OAI22_X1
*I *1866:ZN O *D OAI21_X1
*CAP
1 *1868:B1 3.26619e-05
2 *1866:ZN 3.26619e-05
3 *1868:B1 *1868:B2 2.39679e-06
4 *1868:A1 *1868:B1 4.21607e-06
5 *609:45 *1868:B1 3.02749e-06
*RES
1 *1866:ZN *1868:B1 13.5357 
*END

*D_NET *966 0.000471104
*CONN
*I *1868:B2 I *D OAI22_X1
*I *1867:ZN O *D NOR2_X1
*CAP
1 *1868:B2 0.000154489
2 *1867:ZN 0.000154489
3 *1868:B2 *1451:CK 1.92516e-05
4 *1868:B2 *1866:B1 2.14527e-05
5 *1868:B2 *1869:A1 2.43548e-06
6 *1868:B2 *2170:A1 3.02689e-06
7 *1868:B2 *1303:740 0
8 *1451:D *1868:B2 8.56923e-06
9 *1866:A *1868:B2 1.32323e-05
10 *1868:B1 *1868:B2 2.39679e-06
11 *2116:A2 *1868:B2 6.73899e-05
12 *424:37 *1868:B2 0
13 *593:89 *1868:B2 7.09501e-06
14 *609:35 *1868:B2 1.72757e-05
*RES
1 *1867:ZN *1868:B2 38 
*END

*D_NET *967 0.00069459
*CONN
*I *1869:A1 I *D NAND2_X1
*I *1868:ZN O *D OAI22_X1
*CAP
1 *1869:A1 0.000190091
2 *1868:ZN 0.000190091
3 *1869:A1 *1866:B1 0.000205295
4 *1869:A1 *1316:60 5.9317e-05
5 *1868:B2 *1869:A1 2.43548e-06
6 *424:37 *1869:A1 4.73598e-05
*RES
1 *1868:ZN *1869:A1 48.1429 
*END

*D_NET *968 0.00234735
*CONN
*I *1888:A1 I *D NAND4_X1
*I *1869:ZN O *D NAND2_X1
*CAP
1 *1888:A1 0.000156879
2 *1869:ZN 7.24164e-06
3 *968:10 0.000543868
4 *968:8 0.00039423
5 *1888:A1 *1888:A2 1.21774e-06
6 *1888:A1 *1102:20 0
7 *968:10 *1425:CK 5.64879e-06
8 *968:10 *2068:A2 0.000222788
9 *968:10 *1303:390 1.02597e-05
10 *968:10 *1303:712 7.18184e-06
11 *968:10 *1316:40 7.93834e-05
12 *968:10 *1316:44 3.77199e-05
13 *1771:A2 *968:10 3.87719e-05
14 *1783:A1 *968:10 3.66826e-05
15 *1783:A3 *968:10 1.43544e-05
16 *1783:A4 *968:10 6.00938e-05
17 *2084:A2 *1888:A1 1.07393e-05
18 *2087:A1 *1888:A1 0
19 *2087:A2 *1888:A1 3.55053e-06
20 *127:8 *1888:A1 4.31693e-05
21 *147:8 *1888:A1 0.000232776
22 *378:67 *1888:A1 0
23 *378:74 *1888:A1 4.78395e-06
24 *426:8 *968:8 1.3743e-06
25 *851:10 *968:10 8.60632e-06
26 *866:8 *968:10 0.000323138
27 *876:75 *968:10 9.57979e-05
28 *884:62 *968:8 7.09711e-06
*RES
1 *1869:ZN *968:8 10.75 
2 *968:8 *968:10 63.3572 
3 *968:10 *1888:A1 32.75 
*END

*D_NET *969 6.83947e-05
*CONN
*I *1874:A1 I *D OAI22_X1
*I *1870:ZN O *D NOR2_X1
*CAP
1 *1874:A1 3.06977e-05
2 *1870:ZN 3.06977e-05
3 *1874:A1 *1874:A2 3.22834e-06
4 *1874:A1 *1874:B1 1.21774e-06
5 *1874:A1 *1280:235 2.55331e-06
*RES
1 *1870:ZN *1874:A1 13.5357 
*END

*D_NET *970 0.000373893
*CONN
*I *1874:A2 I *D OAI22_X1
*I *1871:ZN O *D OAI21_X1
*CAP
1 *1874:A2 0.000141252
2 *1871:ZN 0.000141252
3 *1874:A2 *1874:B1 1.11792e-06
4 *1874:A2 *1874:B2 5.11574e-06
5 *1874:A2 *1280:235 0
6 *1874:A2 *1315:52 4.9678e-06
7 *1874:A2 *1315:71 2.52965e-06
8 *1870:A2 *1874:A2 5.32056e-05
9 *1874:A1 *1874:A2 3.22834e-06
10 *461:84 *1874:A2 2.12241e-05
*RES
1 *1871:ZN *1874:A2 27.4643 
*END

*D_NET *971 0.000351734
*CONN
*I *1874:B1 I *D OAI22_X1
*I *1872:ZN O *D OAI21_X1
*CAP
1 *1874:B1 7.73303e-05
2 *1872:ZN 7.73303e-05
3 *1874:B1 *1874:B2 1.25215e-05
4 *1874:B1 *973:10 0.000182217
5 *1874:B1 *1315:71 0
6 *1874:A1 *1874:B1 1.21774e-06
7 *1874:A2 *1874:B1 1.11792e-06
*RES
1 *1872:ZN *1874:B1 31 
*END

*D_NET *972 0.000601825
*CONN
*I *1874:B2 I *D OAI22_X1
*I *1873:ZN O *D NOR2_X1
*CAP
1 *1874:B2 0.000145358
2 *1873:ZN 0.000145358
3 *1874:B2 *973:10 0
4 *1874:B2 *1280:235 4.92112e-05
5 *1874:B2 *1315:71 2.97647e-05
6 *1387:D *1874:B2 5.59876e-05
7 *1870:A1 *1874:B2 0
8 *1870:A2 *1874:B2 6.76643e-05
9 *1874:A2 *1874:B2 5.11574e-06
10 *1874:B1 *1874:B2 1.25215e-05
11 *2245:A2 *1874:B2 4.26902e-05
12 *2246:A1 *1874:B2 4.92317e-06
13 *471:83 *1874:B2 4.32319e-05
14 *837:246 *1874:B2 0
*RES
1 *1873:ZN *1874:B2 40.6072 
*END

*D_NET *973 0.00120641
*CONN
*I *1875:A1 I *D NAND2_X1
*I *1874:ZN O *D OAI22_X1
*CAP
1 *1875:A1 0.000258457
2 *1874:ZN 9.19152e-05
3 *973:10 0.000350372
4 *1875:A1 *1419:CK 3.98918e-06
5 *1875:A1 *1881:A1 1.32348e-05
6 *1875:A1 *2039:A1 0
7 *1875:A1 *2040:A1 0
8 *1875:A1 *1102:20 0
9 *1875:A1 *1294:161 1.39232e-06
10 *1875:A1 *1294:180 0.000171092
11 *1875:A1 *1315:71 0
12 *973:10 *1315:71 0
13 *1874:B1 *973:10 0.000182217
14 *1874:B2 *973:10 0
15 *2190:A2 *1875:A1 2.77274e-05
16 *2191:A1 *1875:A1 5.54348e-05
17 *2191:A2 *1875:A1 5.05831e-05
18 *99:8 *1875:A1 0
*RES
1 *1874:ZN *973:10 21.8571 
2 *973:10 *1875:A1 44.75 
*END

*D_NET *974 0.000228904
*CONN
*I *1888:A2 I *D NAND4_X1
*I *1875:ZN O *D NAND2_X1
*CAP
1 *1888:A2 7.23063e-05
2 *1875:ZN 7.23063e-05
3 *1888:A2 *1881:A1 1.81442e-05
4 *1888:A2 *1888:A3 5.98182e-05
5 *1888:A2 *1102:20 5.11118e-06
6 *1888:A1 *1888:A2 1.21774e-06
7 *2084:A2 *1888:A2 0
*RES
1 *1875:ZN *1888:A2 19.75 
*END

*D_NET *975 0.000294262
*CONN
*I *1880:A1 I *D OAI22_X1
*I *1876:ZN O *D NOR2_X1
*CAP
1 *1880:A1 0.000104645
2 *1876:ZN 0.000104645
3 *1880:A1 *1880:A2 6.32202e-06
4 *1880:A1 *1314:34 0
5 *1876:A1 *1880:A1 0
6 *1879:A1 *1880:A1 0
7 *2095:A1 *1880:A1 1.58933e-05
8 *148:10 *1880:A1 6.27556e-05
*RES
1 *1876:ZN *1880:A1 32.8214 
*END

*D_NET *976 0.000125326
*CONN
*I *1880:A2 I *D OAI22_X1
*I *1877:ZN O *D OAI21_X1
*CAP
1 *1880:A2 4.45554e-05
2 *1877:ZN 4.45554e-05
3 *1880:A2 *1880:B2 3.23723e-07
4 *1880:A2 *979:8 3.65322e-06
5 *1879:A1 *1880:A2 0
6 *1880:A1 *1880:A2 6.32202e-06
7 *107:12 *1880:A2 0
8 *148:10 *1880:A2 1.32167e-05
9 *837:175 *1880:A2 1.26998e-05
*RES
1 *1877:ZN *1880:A2 25.5714 
*END

*D_NET *977 0.00100794
*CONN
*I *1880:B1 I *D OAI22_X1
*I *1878:ZN O *D OAI21_X1
*CAP
1 *1880:B1 0.000262277
2 *1878:ZN 0.000262277
3 *1880:B1 *1877:B1 7.9563e-06
4 *1880:B1 *1880:B2 2.75346e-06
5 *1880:B1 *979:8 0.000404039
6 *1880:B1 *1280:204 6.14523e-05
7 *2265:A1 *1880:B1 7.19036e-06
*RES
1 *1878:ZN *1880:B1 48.25 
*END

*D_NET *978 0.00010413
*CONN
*I *1880:B2 I *D OAI22_X1
*I *1879:ZN O *D NOR2_X1
*CAP
1 *1880:B2 2.84765e-05
2 *1879:ZN 2.84765e-05
3 *1880:B2 *979:8 2.43548e-06
4 *1880:B2 *1280:195 3.89107e-05
5 *1880:B2 *1280:204 2.75346e-06
6 *1880:A2 *1880:B2 3.23723e-07
7 *1880:B1 *1880:B2 2.75346e-06
8 *837:175 *1880:B2 0
*RES
1 *1879:ZN *1880:B2 13.75 
*END

*D_NET *979 0.001879
*CONN
*I *1881:A1 I *D NAND2_X1
*I *1880:ZN O *D OAI22_X1
*CAP
1 *1881:A1 0.000235064
2 *1880:ZN 0.000282615
3 *979:8 0.000517679
4 *1881:A1 *1878:B1 0
5 *1881:A1 *2038:A1 1.80259e-05
6 *1881:A1 *2039:A1 4.75679e-07
7 *1881:A1 *2040:A1 4.11979e-06
8 *1881:A1 *1088:57 0
9 *1881:A1 *1088:72 1.82277e-06
10 *1881:A1 *1102:20 0
11 *1881:A1 *1294:161 1.07788e-05
12 *1881:A1 *1294:180 4.14884e-05
13 *979:8 *1878:B1 2.70833e-06
14 *979:8 *1303:455 6.04034e-05
15 *1875:A1 *1881:A1 1.32348e-05
16 *1878:B2 *1881:A1 0.000120902
17 *1880:A2 *979:8 3.65322e-06
18 *1880:B1 *979:8 0.000404039
19 *1880:B2 *979:8 2.43548e-06
20 *1888:A2 *1881:A1 1.81442e-05
21 *2039:A2 *1881:A1 1.06702e-05
22 *2084:A2 *1881:A1 1.54336e-05
23 *376:78 *979:8 3.3225e-05
24 *378:63 *1881:A1 3.22075e-05
25 *595:16 *1881:A1 1.70033e-05
26 *837:175 *979:8 3.28697e-05
*RES
1 *1880:ZN *979:8 47.7143 
2 *979:8 *1881:A1 46.25 
*END

*D_NET *980 0.000252694
*CONN
*I *1888:A3 I *D NAND4_X1
*I *1881:ZN O *D NAND2_X1
*CAP
1 *1888:A3 7.51332e-05
2 *1881:ZN 7.51332e-05
3 *1888:A3 *1888:A4 2.42487e-05
4 *1888:A3 *986:8 0
5 *1888:A3 *1102:20 1.50372e-05
6 *1875:A2 *1888:A3 0
7 *1881:A2 *1888:A3 3.32296e-06
8 *1888:A2 *1888:A3 5.98182e-05
*RES
1 *1881:ZN *1888:A3 30.2143 
*END

*D_NET *981 0.000131037
*CONN
*I *1886:A1 I *D OAI22_X1
*I *1882:ZN O *D NOR2_X1
*CAP
1 *1886:A1 3.63978e-05
2 *1882:ZN 3.63978e-05
3 *1886:A1 *1886:A2 2.35379e-05
4 *1886:A1 *1886:B1 1.02133e-05
5 *1886:A1 *1294:67 4.79505e-06
6 *837:451 *1886:A1 1.9695e-05
*RES
1 *1882:ZN *1886:A1 25.2143 
*END

*D_NET *982 0.000152416
*CONN
*I *1886:A2 I *D OAI22_X1
*I *1883:ZN O *D OAI21_X1
*CAP
1 *1886:A2 5.2195e-05
2 *1883:ZN 5.2195e-05
3 *1886:A2 *1886:B1 1.42731e-06
4 *1886:A2 *1280:364 2.30608e-05
5 *1886:A1 *1886:A2 2.35379e-05
6 *83:8 *1886:A2 0
*RES
1 *1883:ZN *1886:A2 16.4286 
*END

*D_NET *983 0.00076577
*CONN
*I *1886:B1 I *D OAI22_X1
*I *1884:ZN O *D OAI21_X1
*CAP
1 *1886:B1 2.97462e-05
2 *1884:ZN 0.000268114
3 *983:10 0.00029786
4 *1886:B1 *1886:B2 2.73911e-05
5 *983:10 *1998:A2 1.41532e-05
6 *983:10 *2000:A2 1.05448e-05
7 *983:10 *1062:62 2.09547e-05
8 *983:10 *1064:27 1.08366e-05
9 *983:10 *1294:31 0
10 *983:10 *1294:52 5.8752e-06
11 *983:10 *1294:67 4.50392e-06
12 *1885:A2 *983:10 0
13 *1886:A1 *1886:B1 1.02133e-05
14 *1886:A2 *1886:B1 1.42731e-06
15 *1979:A1 *983:10 0
16 *1979:A2 *983:10 0
17 *837:451 *983:10 2.94705e-06
18 *837:457 *983:10 2.09931e-05
19 *845:67 *983:10 4.02087e-05
*RES
1 *1884:ZN *983:10 47.8214 
2 *983:10 *1886:B1 8.75 
*END

*D_NET *984 9.097e-05
*CONN
*I *1886:B2 I *D OAI22_X1
*I *1885:ZN O *D NOR2_X1
*CAP
1 *1886:B2 2.78392e-05
2 *1885:ZN 2.78392e-05
3 *1886:B2 *2000:A1 2.37093e-06
4 *1885:A1 *1886:B2 5.52959e-06
5 *1886:B1 *1886:B2 2.73911e-05
*RES
1 *1885:ZN *1886:B2 13.8571 
*END

*D_NET *985 0.000258655
*CONN
*I *1887:A1 I *D NAND2_X1
*I *1886:ZN O *D OAI22_X1
*CAP
1 *1887:A1 9.55819e-05
2 *1886:ZN 9.55819e-05
3 *1887:A1 *1280:364 9.57492e-07
4 *1411:D *1887:A1 0
5 *1882:A2 *1887:A1 4.7412e-05
6 *91:10 *1887:A1 0
7 *636:87 *1887:A1 1.26998e-05
8 *837:451 *1887:A1 6.42186e-06
*RES
1 *1886:ZN *1887:A1 31.0714 
*END

*D_NET *986 0.0029403
*CONN
*I *1888:A4 I *D NAND4_X1
*I *1887:ZN O *D NAND2_X1
*CAP
1 *1888:A4 1.19368e-05
2 *1887:ZN 0
3 *986:8 0.00122423
4 *986:6 0.00121229
5 *1888:A4 *1102:20 1.04006e-05
6 *986:8 *1359:CK 9.24525e-05
7 *986:8 *1930:B1 0
8 *986:8 *2020:A2 2.13496e-05
9 *986:8 *2043:A2 6.58849e-06
10 *986:8 *2061:A1 0
11 *986:8 *1292:134 0
12 *986:8 *1294:67 7.4277e-06
13 *986:8 *1294:78 2.79222e-05
14 *986:8 *1294:130 7.11424e-05
15 *1359:D *986:8 1.14703e-05
16 *1417:D *986:8 0
17 *1882:A2 *986:8 1.36822e-05
18 *1888:A3 *1888:A4 2.42487e-05
19 *1888:A3 *986:8 0
20 *2163:A2 *986:8 4.70781e-06
21 *2256:A1 *986:8 3.47797e-05
22 *2256:A2 *986:8 4.81344e-06
23 *2343:A2 *986:8 3.06181e-06
24 *593:43 *986:8 5.2296e-05
25 *593:45 *986:8 7.4751e-06
26 *593:51 *986:8 4.92231e-05
27 *593:53 *986:8 2.85258e-05
28 *593:55 *986:8 1.39599e-05
29 *609:193 *986:8 0
30 *837:449 *986:8 6.32202e-06
*RES
1 *1887:ZN *986:6 10 
2 *986:6 *986:8 143.429 
3 *986:8 *1888:A4 12.25 
*END

*D_NET *987 0.000317363
*CONN
*I *1893:A1 I *D OAI22_X1
*I *1889:ZN O *D NOR2_X1
*CAP
1 *1893:A1 0.000116867
2 *1889:ZN 0.000116867
3 *1893:A1 *1893:A2 2.75346e-06
4 *1893:A1 *1893:B2 2.16072e-07
5 *1810:A1 *1893:A1 6.16494e-05
6 *1814:A1 *1893:A1 1.72426e-05
7 *1814:A2 *1893:A1 0
8 *1814:B2 *1893:A1 1.76693e-06
*RES
1 *1889:ZN *1893:A1 33.6786 
*END

*D_NET *988 0.000115237
*CONN
*I *1893:A2 I *D OAI22_X1
*I *1890:ZN O *D OAI21_X1
*CAP
1 *1893:A2 5.08112e-05
2 *1890:ZN 5.08112e-05
3 *1893:A2 *1890:B1 2.39679e-06
4 *1893:A2 *1893:B2 3.83909e-06
5 *1893:A1 *1893:A2 2.75346e-06
6 *2230:B1 *1893:A2 4.62481e-06
7 *811:170 *1893:A2 0
*RES
1 *1890:ZN *1893:A2 15.25 
*END

*D_NET *989 0.00033815
*CONN
*I *1893:B1 I *D OAI22_X1
*I *1891:ZN O *D OAI21_X1
*CAP
1 *1893:B1 7.08016e-05
2 *1891:ZN 7.08016e-05
3 *1893:B1 *991:8 0.000196547
4 *1814:A1 *1893:B1 0
5 *1814:B2 *1893:B1 0
6 *915:12 *1893:B1 0
*RES
1 *1891:ZN *1893:B1 30.4286 
*END

*D_NET *990 0.000453282
*CONN
*I *1893:B2 I *D OAI22_X1
*I *1892:ZN O *D NOR2_X1
*CAP
1 *1893:B2 0.000172243
2 *1892:ZN 0.000172243
3 *1813:A2 *1893:B2 2.0679e-05
4 *1814:A2 *1893:B2 4.79658e-06
5 *1890:A *1893:B2 2.79688e-05
6 *1892:A2 *1893:B2 6.99525e-06
7 *1893:A1 *1893:B2 2.16072e-07
8 *1893:A2 *1893:B2 3.83909e-06
9 *2230:B1 *1893:B2 3.81799e-05
10 *595:213 *1893:B2 5.52692e-06
11 *811:170 *1893:B2 5.94783e-07
12 *837:305 *1893:B2 0
*RES
1 *1892:ZN *1893:B2 39.2143 
*END

*D_NET *991 0.00169922
*CONN
*I *1894:A1 I *D NAND2_X1
*I *1893:ZN O *D OAI22_X1
*CAP
1 *1894:A1 8.28236e-06
2 *1893:ZN 0
3 *991:8 0.000335846
4 *991:6 0.000327563
5 *1894:A1 *1113:91 0
6 *1814:A1 *991:8 0
7 *1827:A2 *991:8 2.16578e-05
8 *1893:B1 *991:8 0.000196547
9 *1894:A2 *1894:A1 8.43215e-07
10 *2193:A *991:8 3.07768e-05
11 *811:143 *991:8 0.000726667
12 *811:151 *991:8 4.84191e-05
13 *811:170 *991:8 2.61814e-06
*RES
1 *1893:ZN *991:6 10 
2 *991:6 *991:8 54.5357 
3 *991:8 *1894:A1 10.75 
*END

*D_NET *992 0.000899588
*CONN
*I *1913:A1 I *D NAND4_X1
*I *1894:ZN O *D NAND2_X1
*CAP
1 *1913:A1 0
2 *1894:ZN 0.000185504
3 *992:12 0.000185504
4 *992:12 *1903:B1 1.1216e-05
5 *992:12 *1913:A2 1.21774e-06
6 *992:12 *1913:A3 6.48216e-07
7 *992:12 *2070:A1 3.18842e-05
8 *992:12 *1317:41 0
9 *1834:A1 *992:12 8.74473e-06
10 *1834:A3 *992:12 0
11 *1903:A *992:12 5.7135e-05
12 *595:189 *992:12 0.000345282
13 *811:104 *992:12 1.084e-05
14 *922:24 *992:12 4.52612e-06
15 *934:10 *992:12 5.7086e-05
*RES
1 *1894:ZN *992:12 47 
2 *992:12 *1913:A1 5 
*END

*D_NET *993 0.00025963
*CONN
*I *1899:A1 I *D OAI22_X1
*I *1895:ZN O *D NOR2_X1
*CAP
1 *1899:A1 0.000110761
2 *1895:ZN 0.000110761
3 *1899:A1 *1899:B1 1.21774e-06
4 *1899:A1 *1900:A1 9.45786e-06
5 *1895:A2 *1899:A1 6.21255e-06
6 *634:170 *1899:A1 6.07323e-06
7 *756:41 *1899:A1 1.51469e-05
8 *811:40 *1899:A1 0
*RES
1 *1895:ZN *1899:A1 32.8214 
*END

*D_NET *994 0.000251377
*CONN
*I *1899:A2 I *D OAI22_X1
*I *1896:ZN O *D OAI21_X1
*CAP
1 *1899:A2 8.2077e-05
2 *1896:ZN 8.2077e-05
3 *1899:A2 *1900:A1 2.94435e-05
4 *756:41 *1899:A2 2.8336e-05
5 *837:514 *1899:A2 2.94435e-05
*RES
1 *1896:ZN *1899:A2 29.8571 
*END

*D_NET *995 0.00029163
*CONN
*I *1899:B1 I *D OAI22_X1
*I *1897:ZN O *D OAI21_X1
*CAP
1 *1899:B1 0.000101788
2 *1897:ZN 0.000101788
3 *1899:A1 *1899:B1 1.21774e-06
4 *21:19 *1899:B1 2.03657e-05
5 *634:170 *1899:B1 3.46934e-05
6 *756:41 *1899:B1 3.17762e-05
*RES
1 *1897:ZN *1899:B1 33.25 
*END

*D_NET *996 0.000261507
*CONN
*I *1899:B2 I *D OAI22_X1
*I *1898:ZN O *D NOR2_X1
*CAP
1 *1899:B2 6.86426e-05
2 *1898:ZN 6.86426e-05
3 *1898:A1 *1899:B2 6.87846e-05
4 *837:514 *1899:B2 5.54369e-05
*RES
1 *1898:ZN *1899:B2 28.75 
*END

*D_NET *997 0.000294268
*CONN
*I *1900:A1 I *D NAND2_X1
*I *1899:ZN O *D OAI22_X1
*CAP
1 *1900:A1 8.10805e-05
2 *1899:ZN 8.10805e-05
3 *1900:A1 *998:10 6.32202e-06
4 *1895:A2 *1900:A1 0
5 *1899:A1 *1900:A1 9.45786e-06
6 *1899:A2 *1900:A1 2.94435e-05
7 *1900:A2 *1900:A1 3.02351e-05
8 *837:514 *1900:A1 5.66481e-05
*RES
1 *1899:ZN *1900:A1 31.8571 
*END

*D_NET *998 0.0034408
*CONN
*I *1913:A2 I *D NAND4_X1
*I *1900:ZN O *D NAND2_X1
*CAP
1 *1913:A2 1.2045e-05
2 *1900:ZN 0.00027558
3 *998:12 0.000548019
4 *998:10 0.000811554
5 *1913:A2 *1903:B1 1.59582e-06
6 *1913:A2 *1317:41 0
7 *998:12 *1912:A1 5.33367e-06
8 *998:12 *1913:A4 0.000114874
9 *1816:A1 *998:10 0
10 *1816:A2 *998:10 0
11 *1820:A1 *998:10 2.69895e-05
12 *1821:A1 *998:10 2.57883e-05
13 *1821:A2 *998:10 9.561e-06
14 *1828:B2 *998:12 6.86795e-05
15 *1831:A1 *998:12 0.00040259
16 *1895:A2 *998:10 0
17 *1900:A1 *998:10 6.32202e-06
18 *1900:A2 *998:10 5.69857e-05
19 *1907:B1 *998:12 7.72163e-06
20 *1907:B2 *998:12 2.01055e-05
21 *2128:A2 *998:12 0.000105291
22 *2136:B2 *998:12 8.00929e-05
23 *593:137 *998:12 0.000119869
24 *811:78 *998:12 0.000632538
25 *922:18 *998:10 1.26896e-05
26 *922:18 *998:12 9.02529e-05
27 *922:24 *998:12 5.10087e-06
28 *992:12 *1913:A2 1.21774e-06
*RES
1 *1900:ZN *998:10 44.5893 
2 *998:10 *998:12 90.1608 
3 *998:12 *1913:A2 11.25 
*END

*D_NET *999 0.000661451
*CONN
*I *1905:A1 I *D OAI22_X1
*I *1901:ZN O *D OAI21_X1
*CAP
1 *1905:A1 0.000198486
2 *1901:ZN 0.000198486
3 *1905:A1 *1905:B2 1.15782e-06
4 *1905:A1 *1090:63 0
5 *1905:A1 *1113:65 0.000103783
6 *1905:A1 *1113:91 0.000154109
7 *1827:A2 *1905:A1 0
8 *1904:A1 *1905:A1 3.5108e-06
9 *593:10 *1905:A1 1.91954e-06
10 *837:305 *1905:A1 0
*RES
1 *1901:ZN *1905:A1 43.4286 
*END

*D_NET *1000 0.000503807
*CONN
*I *1905:A2 I *D OAI22_X1
*I *1902:ZN O *D NOR2_X1
*CAP
1 *1905:A2 0.000220168
2 *1902:ZN 0.000220168
3 *1905:A2 *1905:B1 1.83053e-06
4 *1905:A2 *1906:A1 3.65322e-06
5 *1333:D *1905:A2 2.36318e-05
6 *1834:A3 *1905:A2 1.91498e-06
7 *1834:A4 *1905:A2 2.08416e-06
8 *2042:B1 *1905:A2 3.03571e-05
9 *811:121 *1905:A2 0
*RES
1 *1902:ZN *1905:A2 33.75 
*END

*D_NET *1001 0.000273403
*CONN
*I *1905:B1 I *D OAI22_X1
*I *1903:ZN O *D OAI21_X1
*CAP
1 *1905:B1 5.88887e-05
2 *1903:ZN 5.88887e-05
3 *1905:B1 *1905:B2 2.75346e-06
4 *1905:B1 *1113:65 0.000146397
5 *1905:B1 *1317:19 0
6 *1903:A *1905:B1 0
7 *1905:A2 *1905:B1 1.83053e-06
8 *1906:A2 *1905:B1 4.64381e-06
*RES
1 *1903:ZN *1905:B1 28.9643 
*END

*D_NET *1002 0.000144359
*CONN
*I *1905:B2 I *D OAI22_X1
*I *1904:ZN O *D NOR2_X1
*CAP
1 *1905:B2 6.71469e-05
2 *1904:ZN 6.71469e-05
3 *1905:B2 *1113:65 6.15437e-06
4 *1903:A *1905:B2 0
5 *1905:A1 *1905:B2 1.15782e-06
6 *1905:B1 *1905:B2 2.75346e-06
7 *811:121 *1905:B2 0
*RES
1 *1904:ZN *1905:B2 26.4643 
*END

*D_NET *1003 0.000167852
*CONN
*I *1906:A1 I *D NAND2_X1
*I *1905:ZN O *D OAI22_X1
*CAP
1 *1906:A1 8.02606e-05
2 *1905:ZN 8.02606e-05
3 *1903:A *1906:A1 0
4 *1905:A2 *1906:A1 3.65322e-06
5 *1906:A2 *1906:A1 1.28122e-06
6 *2042:B1 *1906:A1 2.39679e-06
*RES
1 *1905:ZN *1906:A1 18.3929 
*END

*D_NET *1004 0.000473519
*CONN
*I *1913:A3 I *D NAND4_X1
*I *1906:ZN O *D NAND2_X1
*CAP
1 *1913:A3 6.37142e-05
2 *1906:ZN 6.37142e-05
3 *1913:A3 *1903:B1 0
4 *1913:A3 *1317:41 9.57492e-07
5 *2042:B1 *1913:A3 1.83058e-06
6 *922:24 *1913:A3 0.000171058
7 *934:10 *1913:A3 0.000171597
8 *992:12 *1913:A3 6.48216e-07
*RES
1 *1906:ZN *1913:A3 32.0714 
*END

*D_NET *1005 0.000129031
*CONN
*I *1911:A1 I *D OAI22_X1
*I *1907:ZN O *D OAI21_X1
*CAP
1 *1911:A1 5.35508e-05
2 *1907:ZN 5.35508e-05
3 *1911:A1 *1911:A2 2.75346e-06
4 *1911:A1 *1911:B2 6.05873e-06
5 *1832:A1 *1911:A1 1.31175e-05
6 *141:8 *1911:A1 0
*RES
1 *1907:ZN *1911:A1 16.0357 
*END

*D_NET *1006 0.000223873
*CONN
*I *1911:A2 I *D OAI22_X1
*I *1908:ZN O *D NOR2_X1
*CAP
1 *1911:A2 7.55435e-05
2 *1908:ZN 7.55435e-05
3 *1911:A2 *1303:769 0
4 *1911:A2 *1303:786 0
5 *1832:A1 *1911:A2 4.99246e-05
6 *1911:A1 *1911:A2 2.75346e-06
7 *391:68 *1911:A2 2.01083e-05
*RES
1 *1908:ZN *1911:A2 19.25 
*END

*D_NET *1007 0.000361726
*CONN
*I *1911:B1 I *D OAI22_X1
*I *1909:ZN O *D OAI21_X1
*CAP
1 *1911:B1 0.000171326
2 *1909:ZN 0.000171326
3 *1911:B1 *1909:B1 0
4 *1911:B1 *1911:B2 2.61814e-06
5 *1830:A *1911:B1 0
6 *1909:A *1911:B1 0
7 *2129:B1 *1911:B1 0
8 *811:63 *1911:B1 1.64551e-05
9 *811:78 *1911:B1 0
*RES
1 *1909:ZN *1911:B1 36.8929 
*END

*D_NET *1008 0.000300671
*CONN
*I *1911:B2 I *D OAI22_X1
*I *1910:ZN O *D NOR2_X1
*CAP
1 *1911:B2 0.000102038
2 *1910:ZN 0.000102038
3 *1911:B2 *1912:A1 4.93825e-05
4 *1911:B2 *1303:769 0
5 *1911:A1 *1911:B2 6.05873e-06
6 *1911:B1 *1911:B2 2.61814e-06
7 *141:8 *1911:B2 2.78902e-06
8 *391:68 *1911:B2 0
9 *811:78 *1911:B2 3.57461e-05
*RES
1 *1910:ZN *1911:B2 33.3929 
*END

*D_NET *1009 0.000581615
*CONN
*I *1912:A1 I *D NAND2_X1
*I *1911:ZN O *D OAI22_X1
*CAP
1 *1912:A1 0.000239352
2 *1911:ZN 0.000239352
3 *1833:A1 *1912:A1 0
4 *1911:B2 *1912:A1 4.93825e-05
5 *1912:A2 *1912:A1 3.61453e-06
6 *2173:A1 *1912:A1 1.11435e-06
7 *426:77 *1912:A1 5.69557e-06
8 *811:78 *1912:A1 3.77715e-05
9 *998:12 *1912:A1 5.33367e-06
*RES
1 *1911:ZN *1912:A1 48.25 
*END

*D_NET *1010 0.000812565
*CONN
*I *1913:A4 I *D NAND4_X1
*I *1912:ZN O *D NAND2_X1
*CAP
1 *1913:A4 8.95254e-05
2 *1912:ZN 8.95254e-05
3 *1831:A1 *1913:A4 0.000105582
4 *922:24 *1913:A4 0.000413059
5 *998:12 *1913:A4 0.000114874
*RES
1 *1912:ZN *1913:A4 41.9643 
*END

*D_NET *1011 0.000215096
*CONN
*I *1918:A1 I *D OAI22_X1
*I *1914:ZN O *D NOR2_X1
*CAP
1 *1918:A1 3.83689e-05
2 *1914:ZN 3.83689e-05
3 *1918:A1 *1918:A2 2.38892e-05
4 *1918:A1 *1918:B1 8.43215e-07
5 *1918:A1 *1918:B2 4.32144e-07
6 *1914:A2 *1918:A1 1.77822e-05
7 *593:104 *1918:A1 4.05872e-05
8 *609:45 *1918:A1 5.48248e-05
*RES
1 *1914:ZN *1918:A1 27.1071 
*END

*D_NET *1012 0.000777951
*CONN
*I *1918:A2 I *D OAI22_X1
*I *1915:ZN O *D OAI21_X1
*CAP
1 *1918:A2 0.000148735
2 *1915:ZN 0.000148735
3 *1918:A2 *1918:B2 7.98408e-05
4 *1918:A2 *1303:761 2.80752e-05
5 *1918:A2 *1303:769 0
6 *1917:A2 *1918:A2 6.21219e-05
7 *1918:A1 *1918:A2 2.38892e-05
8 *2121:A2 *1918:A2 6.68482e-05
9 *403:59 *1918:A2 0
10 *593:93 *1918:A2 9.30855e-05
11 *593:104 *1918:A2 0.000114581
12 *609:45 *1918:A2 1.20388e-05
*RES
1 *1915:ZN *1918:A2 43.9286 
*END

*D_NET *1013 6.99652e-05
*CONN
*I *1918:B1 I *D OAI22_X1
*I *1916:ZN O *D OAI21_X1
*CAP
1 *1918:B1 3.12026e-05
2 *1916:ZN 3.12026e-05
3 *1918:B1 *1916:B1 4.31996e-06
4 *1918:B1 *1918:B2 2.39679e-06
5 *1918:A1 *1918:B1 8.43215e-07
6 *609:45 *1918:B1 0
*RES
1 *1916:ZN *1918:B1 13.5357 
*END

*D_NET *1014 0.000177523
*CONN
*I *1918:B2 I *D OAI22_X1
*I *1917:ZN O *D NOR2_X1
*CAP
1 *1918:B2 3.54819e-05
2 *1917:ZN 3.54819e-05
3 *1918:A1 *1918:B2 4.32144e-07
4 *1918:A2 *1918:B2 7.98408e-05
5 *1918:B1 *1918:B2 2.39679e-06
6 *609:45 *1918:B2 1.66988e-05
7 *609:56 *1918:B2 7.19036e-06
*RES
1 *1917:ZN *1918:B2 25.0714 
*END

*D_NET *1015 0.000529594
*CONN
*I *1919:A1 I *D NAND2_X1
*I *1918:ZN O *D OAI22_X1
*CAP
1 *1919:A1 0.000253912
2 *1918:ZN 0.000253912
3 *1919:A1 *1916:B1 0
4 *1919:A1 *1016:10 4.12911e-06
5 *391:60 *1919:A1 0
6 *426:55 *1919:A1 1.76415e-05
7 *609:45 *1919:A1 0
*RES
1 *1918:ZN *1919:A1 46.6429 
*END

*D_NET *1016 0.000771411
*CONN
*I *1938:A1 I *D NAND4_X1
*I *1919:ZN O *D NAND2_X1
*CAP
1 *1938:A1 2.56862e-05
2 *1919:ZN 0.000329976
3 *1016:10 0.000355662
4 *1938:A1 *1113:61 7.87454e-06
5 *1938:A1 *1316:6 3.90865e-05
6 *1016:10 *1292:113 0
7 *1919:A1 *1016:10 4.12911e-06
8 *2171:A1 *1016:10 0
9 *426:47 *1016:10 0
10 *598:276 *1016:10 8.9967e-06
*RES
1 *1919:ZN *1016:10 49.1786 
2 *1016:10 *1938:A1 8.75 
*END

*D_NET *1017 0.00028661
*CONN
*I *1924:A1 I *D OAI22_X1
*I *1920:ZN O *D NOR2_X1
*CAP
1 *1924:A1 0.000110882
2 *1920:ZN 0.000110882
3 *1924:A1 *1921:B1 4.92863e-06
4 *1924:A1 *1924:A2 1.82068e-05
5 *1924:A1 *1924:B1 4.21607e-06
6 *1924:A1 *1924:B2 4.76436e-06
7 *1920:A1 *1924:A1 2.65186e-05
8 *1920:A2 *1924:A1 6.21255e-06
9 *145:8 *1924:A1 0
*RES
1 *1920:ZN *1924:A1 33.5357 
*END

*D_NET *1018 0.000146903
*CONN
*I *1924:A2 I *D OAI22_X1
*I *1921:ZN O *D OAI21_X1
*CAP
1 *1924:A2 3.51806e-05
2 *1921:ZN 3.51806e-05
3 *1924:A2 *1921:B1 5.41857e-05
4 *1924:A2 *1924:B2 4.14913e-06
5 *1924:A1 *1924:A2 1.82068e-05
6 *461:25 *1924:A2 0
*RES
1 *1921:ZN *1924:A2 15.25 
*END

*D_NET *1019 0.00044646
*CONN
*I *1924:B1 I *D OAI22_X1
*I *1922:ZN O *D OAI21_X1
*CAP
1 *1924:B1 9.93815e-05
2 *1922:ZN 9.93815e-05
3 *1924:B1 *1377:CK 0
4 *1924:B1 *1924:B2 1.19839e-05
5 *1924:B1 *1021:8 0.000231497
6 *1924:A1 *1924:B1 4.21607e-06
*RES
1 *1922:ZN *1924:B1 33.7143 
*END

*D_NET *1020 0.00024251
*CONN
*I *1924:B2 I *D OAI22_X1
*I *1923:ZN O *D NOR2_X1
*CAP
1 *1924:B2 0.000107257
2 *1923:ZN 0.000107257
3 *1924:B2 *1921:B1 0
4 *1924:B2 *1021:8 0
5 *1921:B2 *1924:B2 4.77415e-06
6 *1923:A2 *1924:B2 0
7 *1924:A1 *1924:B2 4.76436e-06
8 *1924:A2 *1924:B2 4.14913e-06
9 *1924:B1 *1924:B2 1.19839e-05
10 *2232:A2 *1924:B2 2.32458e-06
11 *461:25 *1924:B2 0
*RES
1 *1923:ZN *1924:B2 30.4286 
*END

*D_NET *1021 0.00148526
*CONN
*I *1925:A1 I *D NAND2_X1
*I *1924:ZN O *D OAI22_X1
*CAP
1 *1925:A1 6.79837e-06
2 *1924:ZN 0
3 *1021:8 0.000361896
4 *1021:6 0.000355098
5 *1021:8 *1377:CK 0
6 *1021:8 *1921:B1 0.000238483
7 *1021:8 *1938:A2 7.66675e-07
8 *1021:8 *1303:547 2.01604e-05
9 *1922:B2 *1021:8 0.000116162
10 *1924:B1 *1021:8 0.000231497
11 *1924:B2 *1021:8 0
12 *2195:A2 *1021:8 1.77822e-05
13 *2196:A2 *1021:8 0.000118829
14 *145:8 *1021:8 0
15 *378:74 *1925:A1 0
16 *598:306 *1021:8 1.29152e-05
17 *853:74 *1925:A1 3.65322e-06
18 *853:85 *1925:A1 1.21774e-06
*RES
1 *1924:ZN *1021:6 10 
2 *1021:6 *1021:8 51.1429 
3 *1021:8 *1925:A1 10.75 
*END

*D_NET *1022 0.000581905
*CONN
*I *1938:A2 I *D NAND4_X1
*I *1925:ZN O *D NAND2_X1
*CAP
1 *1938:A2 0.000213913
2 *1925:ZN 0.000213913
3 *1938:A2 *1938:A3 2.86077e-05
4 *1938:A2 *2682:A 9.58534e-06
5 *1938:A2 *1316:6 2.19783e-05
6 *145:8 *1938:A2 9.31406e-05
7 *1021:8 *1938:A2 7.66675e-07
*RES
1 *1925:ZN *1938:A2 46.75 
*END

*D_NET *1023 0.000110025
*CONN
*I *1930:A1 I *D OAI22_X1
*I *1926:ZN O *D NOR2_X1
*CAP
1 *1930:A1 3.74398e-05
2 *1926:ZN 3.74398e-05
3 *1930:A1 *1930:A2 3.26905e-05
4 *1930:A1 *1930:B2 2.16072e-07
5 *1930:A1 *1027:10 0
6 *609:187 *1930:A1 2.23871e-06
*RES
1 *1926:ZN *1930:A1 14.1786 
*END

*D_NET *1024 0.000642839
*CONN
*I *1930:A2 I *D OAI22_X1
*I *1927:ZN O *D OAI21_X1
*CAP
1 *1930:A2 0.000191912
2 *1927:ZN 0.000191912
3 *1930:A2 *1292:138 1.66193e-05
4 *1930:A2 *1294:138 4.40064e-06
5 *1930:A2 *1294:144 1.87369e-06
6 *1930:A2 *1294:161 1.23316e-05
7 *1926:A1 *1930:A2 2.21259e-05
8 *1926:A2 *1930:A2 1.88066e-05
9 *1930:A1 *1930:A2 3.26905e-05
10 *595:22 *1930:A2 0.000150167
11 *609:187 *1930:A2 0
*RES
1 *1927:ZN *1930:A2 44.8572 
*END

*D_NET *1025 0.000115115
*CONN
*I *1930:B1 I *D OAI22_X1
*I *1928:ZN O *D OAI21_X1
*CAP
1 *1930:B1 1.72623e-05
2 *1928:ZN 1.72623e-05
3 *1930:B1 *2043:A2 2.5406e-05
4 *1930:B1 *1292:134 5.51848e-05
5 *986:8 *1930:B1 0
*RES
1 *1928:ZN *1930:B1 22.9643 
*END

*D_NET *1026 0.000153034
*CONN
*I *1930:B2 I *D OAI22_X1
*I *1929:ZN O *D NOR2_X1
*CAP
1 *1930:B2 5.45022e-05
2 *1929:ZN 5.45022e-05
3 *1930:B2 *2043:A2 3.83783e-05
4 *1930:B2 *1027:10 3.19164e-07
5 *1930:B2 *1303:392 2.71958e-06
6 *1926:A1 *1930:B2 0
7 *1928:A *1930:B2 2.39679e-06
8 *1930:A1 *1930:B2 2.16072e-07
*RES
1 *1929:ZN *1930:B2 16.3571 
*END

*D_NET *1027 0.00128202
*CONN
*I *1931:A1 I *D NAND2_X1
*I *1930:ZN O *D OAI22_X1
*CAP
1 *1931:A1 8.04918e-05
2 *1930:ZN 0.000321317
3 *1027:10 0.000401808
4 *1931:A1 *1316:23 4.99246e-05
5 *1931:A1 *1316:34 1.88906e-05
6 *1027:10 *1425:CK 4.94032e-05
7 *1027:10 *2028:A1 1.5896e-05
8 *1027:10 *2028:A2 1.02224e-05
9 *1027:10 *2031:A1 5.86619e-05
10 *1027:10 *2043:A2 0
11 *1027:10 *1113:44 1.66193e-05
12 *1027:10 *1303:392 0
13 *1027:10 *1316:34 0.000146395
14 *1423:D *1931:A1 8.62472e-06
15 *1774:A1 *1027:10 4.26343e-05
16 *1926:A1 *1027:10 4.38826e-05
17 *1929:A2 *1027:10 7.66905e-06
18 *1930:A1 *1027:10 0
19 *1930:B2 *1027:10 3.19164e-07
20 *876:81 *1931:A1 9.26031e-06
21 *876:81 *1027:10 0
*RES
1 *1930:ZN *1027:10 47.9643 
2 *1027:10 *1931:A1 15.8571 
*END

*D_NET *1028 0.000186164
*CONN
*I *1938:A3 I *D NAND4_X1
*I *1931:ZN O *D NAND2_X1
*CAP
1 *1938:A3 6.33131e-05
2 *1931:ZN 6.33131e-05
3 *1938:A3 *1938:A4 1.81144e-05
4 *1938:A3 *2682:A 6.74733e-06
5 *1938:A3 *1316:23 6.06867e-06
6 *1938:A2 *1938:A3 2.86077e-05
*RES
1 *1931:ZN *1938:A3 17.75 
*END

*D_NET *1029 0.000464691
*CONN
*I *1936:A1 I *D OAI22_X1
*I *1932:ZN O *D NOR2_X1
*CAP
1 *1936:A1 0.000121338
2 *1932:ZN 0.000121338
3 *1936:A1 *1936:A2 2.99872e-05
4 *1936:A1 *1936:B1 3.09143e-06
5 *1936:A1 *1937:A1 0.000100041
6 *1936:A1 *1034:10 1.20937e-06
7 *1932:A1 *1936:A1 5.07447e-05
8 *1932:A2 *1936:A1 1.77822e-05
9 *2004:A2 *1936:A1 1.21774e-06
10 *81:12 *1936:A1 1.87369e-06
11 *837:485 *1936:A1 1.60668e-05
*RES
1 *1932:ZN *1936:A1 38.6429 
*END

*D_NET *1030 7.13824e-05
*CONN
*I *1936:A2 I *D OAI22_X1
*I *1933:ZN O *D OAI21_X1
*CAP
1 *1936:A2 5.70397e-06
2 *1933:ZN 5.70397e-06
3 *1936:A2 *1937:A1 2.99872e-05
4 *1936:A1 *1936:A2 2.99872e-05
*RES
1 *1933:ZN *1936:A2 21.6071 
*END

*D_NET *1031 0.000722035
*CONN
*I *1936:B1 I *D OAI22_X1
*I *1934:ZN O *D OAI21_X1
*CAP
1 *1936:B1 0.000163889
2 *1934:ZN 0.000163889
3 *1936:B1 *1337:CK 5.54758e-05
4 *1936:B1 *1933:B1 7.30233e-06
5 *1936:B1 *1936:B2 0.000171349
6 *1936:B1 *1303:921 1.95473e-05
7 *1934:A *1936:B1 3.20904e-05
8 *1935:A2 *1936:B1 2.51177e-05
9 *1936:A1 *1936:B1 3.09143e-06
10 *73:8 *1936:B1 6.32202e-06
11 *837:485 *1936:B1 3.64246e-05
12 *837:491 *1936:B1 2.0659e-05
13 *845:104 *1936:B1 1.68773e-05
*RES
1 *1934:ZN *1936:B1 48.1429 
*END

*D_NET *1032 0.000309632
*CONN
*I *1936:B2 I *D OAI22_X1
*I *1935:ZN O *D NOR2_X1
*CAP
1 *1936:B2 3.59537e-05
2 *1935:ZN 3.59537e-05
3 *1936:B2 *1933:B1 6.63755e-05
4 *1936:B1 *1936:B2 0.000171349
*RES
1 *1935:ZN *1936:B2 29.0714 
*END

*D_NET *1033 0.000480055
*CONN
*I *1937:A1 I *D NAND2_X1
*I *1936:ZN O *D OAI22_X1
*CAP
1 *1937:A1 0.00013677
2 *1936:ZN 0.00013677
3 *1937:A1 *1933:B1 6.84295e-05
4 *1937:A1 *2025:A1 0
5 *1937:A1 *1034:10 7.66675e-07
6 *1932:A1 *1937:A1 7.16188e-07
7 *1936:A1 *1937:A1 0.000100041
8 *1936:A2 *1937:A1 2.99872e-05
9 *636:98 *1937:A1 3.09411e-06
10 *636:107 *1937:A1 1.21774e-06
11 *837:485 *1937:A1 2.26306e-06
*RES
1 *1936:ZN *1937:A1 37.9643 
*END

*D_NET *1034 0.00249189
*CONN
*I *1938:A4 I *D NAND4_X1
*I *1937:ZN O *D NAND2_X1
*CAP
1 *1938:A4 1.41892e-05
2 *1937:ZN 7.73963e-06
3 *1034:10 0.000935004
4 *1034:8 0.000928554
5 *1034:8 *2025:A1 0
6 *1034:10 *1916:B1 8.13487e-05
7 *1034:10 *2682:A 1.74342e-06
8 *1034:10 *1292:74 8.30934e-05
9 *1034:10 *1292:85 6.77459e-05
10 *1034:10 *1292:96 0.000105104
11 *1034:10 *1292:113 8.59699e-05
12 *1034:10 *1303:761 2.51151e-05
13 *1864:A2 *1034:10 4.7393e-05
14 *1932:A2 *1034:10 2.76278e-05
15 *1936:A1 *1034:10 1.20937e-06
16 *1937:A1 *1034:10 7.66675e-07
17 *1938:A3 *1938:A4 1.81144e-05
18 *35:8 *1034:10 3.65019e-05
19 *403:12 *1034:10 0
20 *598:197 *1034:10 6.03491e-07
21 *598:199 *1034:10 2.10857e-05
22 *636:98 *1034:8 2.97611e-06
*RES
1 *1937:ZN *1034:8 10.75 
2 *1034:8 *1034:10 119.679 
3 *1034:10 *1938:A4 11.75 
*END

*D_NET *1035 0.000281646
*CONN
*I *1941:A1 I *D NAND2_X1
*I *1939:ZN O *D XNOR2_X1
*CAP
1 *1941:A1 0.000112544
2 *1939:ZN 0.000112544
3 *1941:A1 *2405:A 0
4 *1941:A1 *1303:23 3.14335e-05
5 *1939:B *1941:A1 1.65458e-05
6 *596:8 *1941:A1 8.26038e-06
7 *596:21 *1941:A1 3.19164e-07
8 *596:23 *1941:A1 0
9 *596:29 *1941:A1 0
*RES
1 *1939:ZN *1941:A1 32.3571 
*END

*D_NET *1037 6.23155e-05
*CONN
*I *1943:A I *D OAI21_X1
*I *1941:ZN O *D NAND2_X1
*CAP
1 *1943:A 2.6706e-05
2 *1941:ZN 2.6706e-05
3 *1943:A *1943:B1 7.72537e-06
4 *1943:A *1304:106 2.16072e-07
5 *154:27 *1943:A 9.62051e-07
*RES
1 *1941:ZN *1943:A 12.8571 
*END

*D_NET *1038 0.000538742
*CONN
*I *1943:B2 I *D OAI21_X1
*I *1942:ZN O *D XNOR2_X1
*CAP
1 *1943:B2 0.000116949
2 *1942:ZN 0.000116949
3 *1943:B2 *1944:S 0.000196253
4 *1943:B2 *1300:38 6.47253e-05
5 *1943:B2 *1303:10 0
6 *1943:B2 *1303:16 1.16686e-05
7 *1943:B2 *1303:23 3.21961e-05
*RES
1 *1942:ZN *1943:B2 38.0714 
*END

*D_NET *1039 0.00299349
*CONN
*I *2027:A2 I *D NOR2_X2
*I *2103:A2 I *D NOR2_X2
*I *2178:A2 I *D NOR2_X2
*I *1951:A2 I *D NOR2_X2
*I *1950:ZN O *D INV_X1
*CAP
1 *2027:A2 9.21776e-05
2 *2103:A2 5.15662e-05
3 *2178:A2 4.97225e-05
4 *1951:A2 0
5 *1950:ZN 0.000153294
6 *1039:25 0.000101289
7 *1039:23 0.000503893
8 *1039:21 0.000480835
9 *1039:10 0.000222414
10 *2027:A2 *1303:239 5.84443e-05
11 *2027:A2 *1306:22 0.000110233
12 *2103:A2 *2183:B 9.2121e-06
13 *2103:A2 *1306:22 0
14 *2178:A2 *2183:B 4.32144e-07
15 *2178:A2 *1306:22 0
16 *1039:23 *1295:75 8.05299e-05
17 *1514:A *1039:10 0
18 *1807:B1 *1039:23 0
19 *1950:A *1039:10 1.32348e-05
20 *2178:A1 *2178:A2 1.92688e-05
21 *631:6 *1039:10 0
22 *631:36 *1039:10 0
23 *632:10 *1039:10 0
24 *845:168 *2027:A2 2.08638e-05
25 *852:10 *1039:23 0.000920132
26 *852:25 *2027:A2 7.63182e-05
27 *852:25 *1039:23 2.96272e-05
*RES
1 *1950:ZN *1039:10 25.75 
2 *1039:10 *1951:A2 10 
3 *1039:10 *1039:21 8.125 
4 *1039:21 *1039:23 61.6607 
5 *1039:23 *1039:25 5 
6 *1039:25 *2178:A2 10.25 
7 *1039:25 *2103:A2 10.25 
8 *1039:23 *2027:A2 25.0714 
*END

*D_NET *1040 0.00412944
*CONN
*I *1956:S I *D MUX2_X1
*I *2369:A2 I *D NAND2_X1
*I *1952:A2 I *D NAND2_X1
*I *1967:A2 I *D NAND2_X2
*I *1953:A I *D INV_X1
*I *1962:A2 I *D NAND2_X1
*I *1959:A2 I *D NAND2_X1
*I *1961:B2 I *D OAI21_X1
*I *1951:ZN O *D NOR2_X2
*CAP
1 *1956:S 1.95197e-05
2 *2369:A2 6.74391e-05
3 *1952:A2 0
4 *1967:A2 5.91139e-05
5 *1953:A 5.7771e-05
6 *1962:A2 0
7 *1959:A2 0
8 *1961:B2 1.72601e-05
9 *1951:ZN 0.000134892
10 *1040:55 0.000313038
11 *1040:51 0.000427947
12 *1040:34 0.000327058
13 *1040:32 0.000171416
14 *1040:30 0.000529621
15 *1040:28 0.00052753
16 *1040:21 6.62225e-06
17 *1040:10 0.000116533
18 *1040:8 0.000253684
19 *1961:B2 *1961:B1 2.94455e-05
20 *1961:B2 *2388:A 0
21 *1967:A2 *1967:A1 2.75346e-06
22 *1967:A2 *1042:46 0
23 *2369:A2 *2369:A1 1.21774e-06
24 *1040:10 *1961:B1 5.19786e-05
25 *1040:10 *2388:A 0
26 *1040:28 *1961:A 6.56185e-06
27 *1040:30 *1396:CK 2.65202e-05
28 *1040:30 *1843:A 5.81102e-06
29 *1040:30 *1843:B2 7.19036e-06
30 *1040:30 *1959:A1 1.19839e-05
31 *1040:30 *1961:A 8.43215e-07
32 *1040:30 *2369:A1 0
33 *1040:30 *1295:12 0
34 *1040:30 *1298:14 4.47559e-05
35 *1040:30 *1303:885 0
36 *1040:34 *1962:A1 8.43215e-07
37 *1040:34 *1964:A2 7.16188e-07
38 *1040:34 *1298:14 0
39 *1040:51 *1339:CK 1.91498e-06
40 *1040:51 *1955:A1 2.23415e-06
41 *1040:51 *1962:A1 4.21607e-06
42 *1040:51 *1964:A2 4.6613e-07
43 *1040:51 *1042:19 0
44 *1040:51 *1294:12 2.14856e-06
45 *1040:51 *1298:14 8.39784e-05
46 *1040:51 *1298:33 2.39679e-06
47 *1040:55 *1399:CK 0
48 *1040:55 *1970:A1 0
49 *1040:55 *1972:A2 3.58094e-06
50 *1040:55 *1042:6 0
51 *1040:55 *1294:12 0.000210267
52 *1040:55 *1298:33 1.62563e-05
53 *1339:D *1040:51 5.23038e-05
54 *1340:D *1040:30 6.87431e-06
55 *1399:D *1040:55 3.96215e-05
56 *1515:A1 *1040:8 7.19234e-06
57 *1842:A *1040:30 2.99349e-06
58 *1844:B2 *1040:30 0
59 *1960:A *1040:30 1.61774e-05
60 *1970:A2 *1040:55 0
61 *2371:A2 *2369:A2 1.54797e-05
62 *633:8 *1040:8 5.74951e-06
63 *633:19 *1040:8 0
64 *636:10 *1956:S 3.02372e-05
65 *636:10 *1961:B2 5.38256e-05
66 *636:10 *1040:10 0.000338944
67 *756:12 *1967:A2 0
68 *756:12 *1040:55 0
69 *942:8 *1040:30 1.25189e-05
*RES
1 *1951:ZN *1040:8 23.75 
2 *1040:8 *1040:10 17.8929 
3 *1040:10 *1961:B2 12.9643 
4 *1040:10 *1040:21 5 
5 *1040:21 *1959:A2 5 
6 *1040:21 *1040:28 0.928572 
7 *1040:28 *1040:30 56.3929 
8 *1040:30 *1040:32 0.928572 
9 *1040:32 *1040:34 9.60715 
10 *1040:34 *1962:A2 5 
11 *1040:34 *1040:51 28.7143 
12 *1040:51 *1040:55 26.6786 
13 *1040:55 *1953:A 21.3571 
14 *1040:55 *1967:A2 10.9286 
15 *1040:51 *1952:A2 5 
16 *1040:32 *2369:A2 15.7143 
17 *1040:8 *1956:S 12.5357 
*END

*D_NET *1041 6.8429e-05
*CONN
*I *1955:A1 I *D NAND2_X1
*I *1952:ZN O *D NAND2_X1
*CAP
1 *1955:A1 2.71005e-05
2 *1952:ZN 2.71005e-05
3 *1955:A1 *1339:CK 6.0887e-06
4 *1955:A1 *1955:A2 5.90523e-06
5 *1040:51 *1955:A1 2.23415e-06
*RES
1 *1952:ZN *1955:A1 13.5357 
*END

*D_NET *1042 0.00278886
*CONN
*I *1966:B2 I *D OAI21_X1
*I *1965:A1 I *D NAND2_X1
*I *1957:A1 I *D NAND2_X1
*I *1958:B2 I *D OAI21_X1
*I *1968:A1 I *D NAND2_X1
*I *2370:A1 I *D NAND2_X1
*I *1963:A1 I *D NAND2_X1
*I *1954:A1 I *D NAND2_X1
*I *1953:ZN O *D INV_X1
*CAP
1 *1966:B2 0
2 *1965:A1 5.40366e-05
3 *1957:A1 0
4 *1958:B2 5.03522e-05
5 *1968:A1 8.71307e-06
6 *2370:A1 0.000130009
7 *1963:A1 0
8 *1954:A1 8.15016e-06
9 *1953:ZN 0.000357849
10 *1042:59 0.000124806
11 *1042:57 0.000128491
12 *1042:55 0.000234068
13 *1042:46 0.000402864
14 *1042:19 0.000361042
15 *1042:6 0.000436949
16 *1954:A1 *1339:CK 1.76665e-06
17 *1958:B2 *1341:CK 0
18 *1965:A1 *1341:CK 0
19 *1965:A1 *1966:A 8.14262e-05
20 *1965:A1 *1309:66 0
21 *2370:A1 *1303:889 0
22 *1042:6 *1339:CK 5.4104e-05
23 *1042:6 *1399:CK 9.05213e-05
24 *1042:6 *1303:908 0
25 *1042:6 *1308:39 1.80259e-05
26 *1042:19 *1339:CK 9.00848e-05
27 *1042:19 *1962:A1 1.83053e-06
28 *1042:19 *1964:A2 4.24423e-05
29 *1042:46 *1934:B1 0
30 *1042:46 *1967:A1 0
31 *1042:46 *1292:14 0
32 *1042:46 *1303:908 0
33 *1042:55 *1969:A2 0
34 *1042:59 *1341:CK 0
35 *1759:B2 *1042:6 0
36 *1884:B2 *2370:A1 0
37 *1884:B2 *1042:19 0
38 *1934:A *1042:55 0
39 *1954:A2 *1042:6 0
40 *1963:A2 *1042:19 2.00179e-05
41 *1967:A2 *1042:46 0
42 *2370:A2 *2370:A1 1.21774e-06
43 *2371:A2 *2370:A1 4.96519e-06
44 *79:8 *1042:6 1.81442e-05
45 *756:20 *1958:B2 0
46 *756:20 *1965:A1 0
47 *756:20 *1042:59 0
48 *811:12 *1042:55 4.33107e-05
49 *811:25 *1042:55 2.36711e-05
50 *1040:51 *1042:19 0
51 *1040:55 *1042:6 0
*RES
1 *1953:ZN *1042:6 28.75 
2 *1042:6 *1954:A1 5.92857 
3 *1042:6 *1042:19 32.7143 
4 *1042:19 *1963:A1 10 
5 *1042:19 *2370:A1 23.2143 
6 *1953:ZN *1042:46 20.5357 
7 *1042:46 *1968:A1 5.92857 
8 *1042:46 *1042:55 25.75 
9 *1042:55 *1042:57 5 
10 *1042:57 *1042:59 8.39286 
11 *1042:59 *1958:B2 15 
12 *1042:59 *1957:A1 10 
13 *1042:57 *1965:A1 17.0357 
14 *1042:55 *1966:B2 5 
*END

*D_NET *1043 0.000111034
*CONN
*I *1955:A2 I *D NAND2_X1
*I *1954:ZN O *D NAND2_X1
*CAP
1 *1955:A2 3.96139e-05
2 *1954:ZN 3.96139e-05
3 *1955:A2 *1339:CK 7.76413e-06
4 *1955:A2 *1298:33 1.53834e-05
5 *1343:D *1955:A2 2.75346e-06
6 *1955:A1 *1955:A2 5.90523e-06
*RES
1 *1954:ZN *1955:A2 15.7143 
*END

*D_NET *1044 7.51291e-05
*CONN
*I *1958:A I *D OAI21_X1
*I *1957:ZN O *D NAND2_X1
*CAP
1 *1958:A 3.05268e-05
2 *1957:ZN 3.05268e-05
3 *1957:A2 *1958:A 8.43215e-07
4 *1958:B1 *1958:A 1.32323e-05
*RES
1 *1957:ZN *1958:A 13.5357 
*END

*D_NET *1045 7.70335e-05
*CONN
*I *1961:A I *D OAI21_X1
*I *1959:ZN O *D NAND2_X1
*CAP
1 *1961:A 3.12191e-05
2 *1959:ZN 3.12191e-05
3 *1961:A *1961:B1 7.19036e-06
4 *1961:A *1303:859 0
5 *1040:28 *1961:A 6.56185e-06
6 *1040:30 *1961:A 8.43215e-07
*RES
1 *1959:ZN *1961:A 13.5357 
*END

*D_NET *1046 0.000154709
*CONN
*I *1961:B1 I *D OAI21_X1
*I *1960:ZN O *D INV_X1
*CAP
1 *1961:B1 3.30471e-05
2 *1960:ZN 3.30471e-05
3 *1961:B1 *2388:A 0
4 *1961:A *1961:B1 7.19036e-06
5 *1961:B2 *1961:B1 2.94455e-05
6 *1040:10 *1961:B1 5.19786e-05
*RES
1 *1960:ZN *1961:B1 25.0714 
*END

*D_NET *1047 5.30734e-05
*CONN
*I *1964:A1 I *D NAND2_X1
*I *1962:ZN O *D NAND2_X1
*CAP
1 *1964:A1 1.15431e-05
2 *1962:ZN 1.15431e-05
3 *1964:A1 *1964:A2 2.99872e-05
*RES
1 *1962:ZN *1964:A1 21.6071 
*END

*D_NET *1048 0.00027177
*CONN
*I *1964:A2 I *D NAND2_X1
*I *1963:ZN O *D NAND2_X1
*CAP
1 *1964:A2 6.25051e-05
2 *1963:ZN 6.25051e-05
3 *1964:A2 *1962:A1 6.70982e-05
4 *1964:A2 *1298:14 3.65322e-06
5 *1339:D *1964:A2 2.39679e-06
6 *1884:B2 *1964:A2 0
7 *1964:A1 *1964:A2 2.99872e-05
8 *1040:34 *1964:A2 7.16188e-07
9 *1040:51 *1964:A2 4.6613e-07
10 *1042:19 *1964:A2 4.24423e-05
*RES
1 *1963:ZN *1964:A2 28.4643 
*END

*D_NET *1049 0.000163922
*CONN
*I *1966:A I *D OAI21_X1
*I *1965:ZN O *D NAND2_X1
*CAP
1 *1966:A 3.61857e-05
2 *1965:ZN 3.61857e-05
3 *1966:A *1309:66 0
4 *1965:A1 *1966:A 8.14262e-05
5 *811:25 *1966:A 2.39679e-06
6 *811:34 *1966:A 7.72792e-06
*RES
1 *1965:ZN *1966:A 25.0714 
*END

*D_NET *1050 0.00011816
*CONN
*I *1969:A1 I *D NAND2_X2
*I *1967:ZN O *D NAND2_X2
*CAP
1 *1969:A1 3.78927e-05
2 *1967:ZN 3.78927e-05
3 *1969:A1 *1969:A2 2.75346e-06
4 *1969:A1 *1292:14 3.96215e-05
5 *756:12 *1969:A1 0
*RES
1 *1967:ZN *1969:A1 14.6786 
*END

*D_NET *1051 0.000223101
*CONN
*I *1969:A2 I *D NAND2_X2
*I *1968:ZN O *D NAND2_X1
*CAP
1 *1969:A2 8.77722e-05
2 *1968:ZN 8.77722e-05
3 *1969:A2 *1292:14 6.0887e-06
4 *1337:D *1969:A2 3.21529e-05
5 *1969:A1 *1969:A2 2.75346e-06
6 *17:6 *1969:A2 6.56185e-06
7 *756:12 *1969:A2 0
8 *1042:55 *1969:A2 0
*RES
1 *1968:ZN *1969:A2 20.0714 
*END

*D_NET *1052 5.82139e-05
*CONN
*I *1972:A1 I *D NAND2_X1
*I *1970:ZN O *D NAND2_X1
*CAP
1 *1972:A1 2.41688e-05
2 *1970:ZN 2.41688e-05
3 *1972:A1 *1399:CK 1.59582e-06
4 *1972:A1 *1972:A2 5.52692e-06
5 *1970:A2 *1972:A1 2.75346e-06
*RES
1 *1970:ZN *1972:A1 12.8571 
*END

*D_NET *1053 0.000180912
*CONN
*I *1972:A2 I *D NAND2_X1
*I *1971:ZN O *D NAND2_X1
*CAP
1 *1972:A2 7.54101e-05
2 *1971:ZN 7.54101e-05
3 *1972:A2 *1399:CK 0
4 *1972:A2 *1298:33 0
5 *1761:A2 *1972:A2 6.32461e-06
6 *1970:A2 *1972:A2 1.46594e-05
7 *1972:A1 *1972:A2 5.52692e-06
8 *1040:55 *1972:A2 3.58094e-06
*RES
1 *1971:ZN *1972:A2 28.2857 
*END

*D_NET *1054 7.78537e-05
*CONN
*I *1975:A I *D OAI21_X1
*I *1974:ZN O *D NAND2_X1
*CAP
1 *1975:A 1.88016e-05
2 *1974:ZN 1.88016e-05
3 *1397:D *1975:A 1.21774e-06
4 *1974:A1 *1975:A 2.94455e-05
5 *1974:A2 *1975:A 7.19036e-06
6 *1975:B1 *1975:A 2.39679e-06
*RES
1 *1974:ZN *1975:A 22.3571 
*END

*D_NET *1055 0.000310743
*CONN
*I *1977:A I *D OAI21_X1
*I *1976:ZN O *D NAND2_X1
*CAP
1 *1977:A 7.7868e-05
2 *1976:ZN 7.7868e-05
3 *1977:A *1396:CK 1.19839e-05
4 *1977:A *1843:A 1.3324e-05
5 *1977:A *1976:A1 2.73227e-06
6 *1977:A *1295:27 1.94514e-05
7 *1976:A2 *1977:A 7.72537e-06
8 *633:21 *1977:A 5.09785e-05
9 *633:23 *1977:A 3.21131e-05
10 *633:25 *1977:A 1.66988e-05
*RES
1 *1976:ZN *1977:A 30.1071 
*END

*D_NET *1056 8.78636e-05
*CONN
*I *1980:A1 I *D NAND2_X1
*I *1978:ZN O *D NAND2_X1
*CAP
1 *1980:A1 3.6894e-05
2 *1978:ZN 3.6894e-05
3 *1980:A1 *1980:A2 8.43215e-07
4 *1395:D *1980:A1 0
5 *633:104 *1980:A1 0
6 *634:131 *1980:A1 1.32323e-05
*RES
1 *1978:ZN *1980:A1 14.2143 
*END

*D_NET *1057 0.0002626
*CONN
*I *1980:A2 I *D NAND2_X1
*I *1979:ZN O *D NAND2_X1
*CAP
1 *1980:A2 6.93024e-05
2 *1979:ZN 6.93024e-05
3 *1980:A2 *1294:52 1.33704e-05
4 *1395:D *1980:A2 7.72537e-06
5 *1979:A1 *1980:A2 9.70656e-05
6 *1980:A1 *1980:A2 8.43215e-07
7 *75:8 *1980:A2 1.68643e-06
8 *633:115 *1980:A2 2.83434e-06
9 *634:131 *1980:A2 4.69702e-07
*RES
1 *1979:ZN *1980:A2 29.0357 
*END

*D_NET *1058 7.12013e-05
*CONN
*I *1982:A I *D OAI21_X1
*I *1981:ZN O *D NAND2_X1
*CAP
1 *1982:A 2.64094e-05
2 *1981:ZN 2.64094e-05
3 *1981:A2 *1982:A 2.39679e-06
4 *1982:B1 *1982:A 1.32323e-05
5 *811:40 *1982:A 2.75346e-06
*RES
1 *1981:ZN *1982:A 13.6071 
*END

*D_NET *1059 0.000205799
*CONN
*I *1985:A1 I *D NAND2_X1
*I *1983:ZN O *D NAND2_X2
*CAP
1 *1985:A1 7.0032e-05
2 *1983:ZN 7.0032e-05
3 *1985:A1 *1983:A1 4.45934e-05
4 *1985:A1 *1985:A2 1.21774e-06
5 *1985:A1 *1303:908 0
6 *845:87 *1985:A1 1.99237e-05
*RES
1 *1983:ZN *1985:A1 18.75 
*END

*D_NET *1060 0.000370266
*CONN
*I *1985:A2 I *D NAND2_X1
*I *1984:ZN O *D NAND2_X1
*CAP
1 *1985:A2 8.43701e-05
2 *1984:ZN 8.43701e-05
3 *1985:A2 *1933:B1 5.19786e-05
4 *1985:A2 *1303:908 0
5 *1985:A2 *1303:921 0.000119619
6 *1393:D *1985:A2 2.80727e-05
7 *1985:A1 *1985:A2 1.21774e-06
8 *845:87 *1985:A2 6.38328e-07
*RES
1 *1984:ZN *1985:A2 32.3214 
*END

*D_NET *1061 0.00239951
*CONN
*I *2215:A2 I *D NOR2_X2
*I *2064:A2 I *D NOR2_X1
*I *2140:A2 I *D NOR2_X2
*I *1987:A2 I *D NOR2_X1
*I *1986:ZN O *D INV_X1
*CAP
1 *2215:A2 0
2 *2064:A2 5.68473e-05
3 *2140:A2 7.3714e-06
4 *1987:A2 2.91929e-06
5 *1986:ZN 3.75498e-05
6 *1061:38 0.000352945
7 *1061:23 0.00054604
8 *1061:10 0.00028304
9 *1987:A2 *1992:S 7.72537e-06
10 *2064:A2 *2064:A1 3.09143e-06
11 *2064:A2 *2083:A2 1.06179e-05
12 *1061:10 *1992:S 5.47949e-06
13 *1061:10 *1304:88 1.57087e-05
14 *1061:23 *1805:B1 7.61073e-05
15 *1061:23 *1303:76 6.53488e-05
16 *1061:23 *1303:85 0.00057312
17 *1061:38 *1074:20 0
18 *1061:38 *1100:45 4.29023e-06
19 *1061:38 *1303:85 7.39998e-05
20 *1061:38 *1303:239 1.39047e-05
21 *1795:A1 *2064:A2 0
22 *2007:A1 *1061:23 8.43226e-05
23 *2215:A1 *2064:A2 1.32323e-05
24 *2215:A1 *1061:38 7.19036e-06
25 *388:23 *2140:A2 3.09411e-06
26 *471:10 *2064:A2 8.43215e-07
27 *471:10 *1061:38 3.13136e-05
28 *631:10 *1061:10 2.96272e-05
29 *631:10 *1061:23 2.89018e-05
30 *852:10 *1061:23 0
31 *876:8 *1061:10 6.50033e-06
32 *876:8 *1061:23 6.99073e-06
33 *876:8 *1061:38 5.13904e-05
*RES
1 *1986:ZN *1061:10 15.3571 
2 *1061:10 *1987:A2 10.75 
3 *1061:10 *1061:23 40.3572 
4 *1061:23 *2140:A2 10.75 
5 *1061:23 *1061:38 41.2857 
6 *1061:38 *2064:A2 11.4286 
7 *1061:38 *2215:A2 5 
*END

*D_NET *1062 0.00412289
*CONN
*I *1997:B2 I *D OAI21_X1
*I *1998:A2 I *D NAND2_X1
*I *1988:A2 I *D NAND2_X1
*I *2003:A2 I *D NAND2_X2
*I *1989:A I *D INV_X1
*I *2363:A2 I *D NAND2_X1
*I *1995:A2 I *D NAND2_X1
*I *1992:S I *D MUX2_X1
*I *1987:ZN O *D NOR2_X1
*CAP
1 *1997:B2 0
2 *1998:A2 2.46165e-05
3 *1988:A2 0
4 *2003:A2 0
5 *1989:A 0
6 *2363:A2 0
7 *1995:A2 1.15886e-05
8 *1992:S 5.40557e-05
9 *1987:ZN 0
10 *1062:82 0.000286467
11 *1062:62 0.000567352
12 *1062:56 0.000417314
13 *1062:47 0.00022017
14 *1062:38 0.000378736
15 *1062:21 0.000305465
16 *1062:17 0.000336989
17 *1062:4 0.000367547
18 *1992:S *1992:B 0
19 *1992:S *1304:88 0
20 *1995:A2 *1295:50 2.72171e-06
21 *1995:A2 *1295:63 2.96955e-05
22 *1998:A2 *1999:A1 9.42114e-05
23 *1998:A2 *2000:A2 4.22328e-05
24 *1998:A2 *1064:27 1.2203e-05
25 *1062:17 *1805:B1 4.33679e-05
26 *1062:17 *1997:B1 5.52692e-06
27 *1062:17 *1297:45 9.70781e-07
28 *1062:17 *1304:26 0
29 *1062:17 *1304:88 9.49258e-06
30 *1062:21 *1295:63 9.38792e-05
31 *1062:38 *1995:A1 2.52965e-06
32 *1062:38 *2364:A1 2.39679e-06
33 *1062:38 *1295:50 6.24846e-06
34 *1062:38 *1299:34 0.000167925
35 *1062:38 *1305:42 0
36 *1062:38 *1305:48 0
37 *1062:47 *2364:A1 8.40392e-05
38 *1062:47 *1064:21 0
39 *1062:47 *1299:34 8.43215e-07
40 *1062:47 *1299:45 2.25089e-06
41 *1062:56 *1064:21 0.000150658
42 *1062:62 *1988:A1 1.21774e-06
43 *1062:62 *1991:A1 4.31185e-06
44 *1062:62 *1064:27 9.52084e-05
45 *1062:82 *1988:A1 6.82202e-07
46 *1062:82 *1991:A1 2.75346e-06
47 *1062:82 *1991:A2 8.98274e-07
48 *1062:82 *2003:A1 2.75346e-06
49 *1062:82 *1064:35 0
50 *1062:82 *1280:370 7.70714e-06
51 *1062:82 *1280:385 1.02123e-05
52 *1407:D *1062:82 1.18902e-05
53 *1408:D *1062:38 0
54 *1762:A1 *1062:82 8.43215e-07
55 *1762:A2 *1062:82 7.10784e-07
56 *1762:B1 *1062:82 1.13365e-05
57 *1762:B2 *1062:82 3.09143e-06
58 *1805:A *1062:17 1.87369e-06
59 *1805:B2 *1062:17 4.72366e-05
60 *1807:B1 *1062:17 4.38826e-05
61 *1986:A *1992:S 6.38328e-07
62 *1987:A1 *1992:S 1.25189e-05
63 *1987:A1 *1062:17 2.39679e-06
64 *1987:A2 *1992:S 7.72537e-06
65 *2364:A2 *1062:38 2.15006e-06
66 *837:457 *1062:62 0
67 *837:483 *1062:82 0
68 *845:46 *1062:17 3.6056e-05
69 *845:46 *1062:38 2.2998e-05
70 *944:8 *1995:A2 1.0164e-05
71 *944:8 *1062:21 1.95473e-05
72 *983:10 *1998:A2 1.41532e-05
73 *983:10 *1062:62 2.09547e-05
74 *1061:10 *1992:S 5.47949e-06
*RES
1 *1987:ZN *1062:4 5 
2 *1062:4 *1992:S 10.75 
3 *1062:4 *1062:17 36.6072 
4 *1062:17 *1062:21 10 
5 *1062:21 *1995:A2 12.2857 
6 *1062:21 *1062:38 36.4286 
7 *1062:38 *2363:A2 5 
8 *1062:38 *1062:47 13.2143 
9 *1062:47 *1989:A 5 
10 *1062:47 *1062:56 19.75 
11 *1062:56 *1062:62 35.75 
12 *1062:62 *1062:82 45.2872 
13 *1062:82 *2003:A2 5 
14 *1062:62 *1988:A2 5 
15 *1062:56 *1998:A2 15.6786 
16 *1062:17 *1997:B2 5 
*END

*D_NET *1063 8.04198e-05
*CONN
*I *1991:A1 I *D NAND2_X1
*I *1988:ZN O *D NAND2_X1
*CAP
1 *1991:A1 2.99821e-05
2 *1988:ZN 2.99821e-05
3 *1991:A1 *1990:A1 2.86475e-06
4 *1991:A1 *1991:A2 1.21774e-06
5 *1991:A1 *1064:27 7.16188e-07
6 *1991:A1 *1298:48 8.59171e-06
7 *1062:62 *1991:A1 4.31185e-06
8 *1062:82 *1991:A1 2.75346e-06
*RES
1 *1988:ZN *1991:A1 23.5357 
*END

*D_NET *1064 0.004038
*CONN
*I *1999:A1 I *D NAND2_X1
*I *1990:A1 I *D NAND2_X1
*I *2004:A1 I *D NAND2_X1
*I *2001:A1 I *D NAND2_X1
*I *1993:A1 I *D NAND2_X1
*I *1994:B2 I *D OAI21_X1
*I *2002:B2 I *D OAI21_X1
*I *2364:A1 I *D NAND2_X1
*I *1989:ZN O *D INV_X1
*CAP
1 *1999:A1 5.16724e-05
2 *1990:A1 4.51001e-06
3 *2004:A1 8.50895e-05
4 *2001:A1 0
5 *1993:A1 4.47976e-05
6 *1994:B2 7.29201e-06
7 *2002:B2 4.98472e-05
8 *2364:A1 0.00010919
9 *1989:ZN 0
10 *1064:58 0.000218094
11 *1064:45 0.000219921
12 *1064:41 0.000248227
13 *1064:35 0.000672976
14 *1064:27 0.000633294
15 *1064:21 0.000464192
16 *1064:4 0.000236654
17 *1990:A1 *1991:A2 2.75346e-06
18 *1993:A1 *1994:A 1.79504e-05
19 *1994:B2 *1994:A 6.85774e-07
20 *1999:A1 *2000:A2 8.96892e-06
21 *1999:A1 *1294:52 0.000114542
22 *1999:A1 *1294:67 7.16188e-07
23 *2002:B2 *2002:A 6.48216e-07
24 *2002:B2 *1309:55 7.72537e-06
25 *2004:A1 *1933:B1 0
26 *2004:A1 *1292:40 0
27 *2004:A1 *1292:55 0
28 *1064:21 *1403:CK 0
29 *1064:27 *1294:52 0.000172385
30 *1064:35 *1395:CK 0
31 *1064:35 *1991:A2 7.29164e-07
32 *1064:35 *2003:A1 0
33 *1064:35 *2005:A1 0
34 *1064:35 *1280:385 0
35 *1064:35 *1292:40 0
36 *1064:35 *1308:20 0
37 *1064:35 *1308:24 0
38 *1064:41 *2002:A 2.24822e-06
39 *1064:41 *1309:55 0
40 *1064:45 *2002:A 2.86649e-06
41 *1401:D *1064:35 1.18232e-06
42 *1401:D *1064:41 4.2758e-05
43 *1403:D *1064:21 0
44 *1756:B2 *1064:35 1.08381e-05
45 *1935:A1 *1064:41 0
46 *1935:A2 *1064:41 0
47 *1990:A2 *1990:A1 1.21774e-06
48 *1990:A2 *1064:35 3.62228e-05
49 *1991:A1 *1990:A1 2.86475e-06
50 *1991:A1 *1064:27 7.16188e-07
51 *1993:A2 *1993:A1 3.02351e-05
52 *1994:B1 *1994:B2 1.21774e-06
53 *1998:A2 *1999:A1 9.42114e-05
54 *1998:A2 *1064:27 1.2203e-05
55 *1999:A2 *1999:A1 2.86663e-05
56 *2001:A2 *1064:45 1.21774e-06
57 *2002:B1 *2002:B2 3.02372e-05
58 *2364:A2 *2364:A1 8.43215e-07
59 *75:8 *1064:27 7.87811e-06
60 *83:8 *1999:A1 7.19036e-06
61 *634:161 *1064:35 0
62 *634:161 *1064:41 0
63 *634:170 *1064:41 0
64 *636:107 *1993:A1 7.19036e-06
65 *983:10 *1064:27 1.08366e-05
66 *1062:38 *2364:A1 2.39679e-06
67 *1062:47 *2364:A1 8.40392e-05
68 *1062:47 *1064:21 0
69 *1062:56 *1064:21 0.000150658
70 *1062:62 *1064:27 9.52084e-05
71 *1062:82 *1064:35 0
*RES
1 *1989:ZN *1064:4 5 
2 *1064:4 *2364:A1 27.5714 
3 *1064:4 *1064:21 21.25 
4 *1064:21 *1064:27 39.3214 
5 *1064:27 *1064:35 39.4643 
6 *1064:35 *1064:41 30.6786 
7 *1064:41 *1064:45 5.75 
8 *1064:45 *2002:B2 15.0714 
9 *1064:45 *1064:58 17.2143 
10 *1064:58 *1994:B2 10.75 
11 *1064:58 *1993:A1 15.0714 
12 *1064:41 *2001:A1 5 
13 *1064:35 *2004:A1 18.3929 
14 *1064:27 *1990:A1 6.25 
15 *1064:21 *1999:A1 19.1429 
*END

*D_NET *1065 4.78155e-05
*CONN
*I *1991:A2 I *D NAND2_X1
*I *1990:ZN O *D NAND2_X1
*CAP
1 *1991:A2 2.01296e-05
2 *1990:ZN 2.01296e-05
3 *1407:D *1991:A2 8.43215e-07
4 *1990:A1 *1991:A2 2.75346e-06
5 *1990:A2 *1991:A2 1.11435e-06
6 *1991:A1 *1991:A2 1.21774e-06
7 *1062:82 *1991:A2 8.98274e-07
8 *1064:35 *1991:A2 7.29164e-07
*RES
1 *1990:ZN *1991:A2 12.1786 
*END

*D_NET *1066 8.97545e-05
*CONN
*I *1994:A I *D OAI21_X1
*I *1993:ZN O *D NAND2_X1
*CAP
1 *1994:A 3.33044e-05
2 *1993:ZN 3.33044e-05
3 *1993:A1 *1994:A 1.79504e-05
4 *1994:B1 *1994:A 3.22834e-06
5 *1994:B2 *1994:A 6.85774e-07
6 *636:107 *1994:A 1.28122e-06
*RES
1 *1993:ZN *1994:A 24.0357 
*END

*D_NET *1067 0.000280157
*CONN
*I *1997:A I *D OAI21_X1
*I *1995:ZN O *D NAND2_X1
*CAP
1 *1997:A 6.58978e-05
2 *1995:ZN 6.58978e-05
3 *1997:A *1997:B1 2.75346e-06
4 *1997:A *1295:63 0.000145608
5 *1997:A *1304:26 0
*RES
1 *1995:ZN *1997:A 28.9643 
*END

*D_NET *1068 6.98802e-05
*CONN
*I *1997:B1 I *D OAI21_X1
*I *1996:ZN O *D INV_X1
*CAP
1 *1997:B1 3.07999e-05
2 *1996:ZN 3.07999e-05
3 *1997:B1 *1304:26 0
4 *1997:A *1997:B1 2.75346e-06
5 *1062:17 *1997:B1 5.52692e-06
*RES
1 *1996:ZN *1997:B1 13.5357 
*END

*D_NET *1069 5.90842e-05
*CONN
*I *2000:A1 I *D NAND2_X1
*I *1998:ZN O *D NAND2_X1
*CAP
1 *2000:A1 2.61747e-05
2 *1998:ZN 2.61747e-05
3 *2000:A1 *2000:A2 2.52965e-06
4 *2000:A1 *1294:52 2.16072e-07
5 *2000:A1 *1294:67 1.61803e-06
6 *1886:B2 *2000:A1 2.37093e-06
*RES
1 *1998:ZN *2000:A1 12.8571 
*END

*D_NET *1070 0.000194002
*CONN
*I *2000:A2 I *D NAND2_X1
*I *1999:ZN O *D NAND2_X1
*CAP
1 *2000:A2 4.27294e-05
2 *1999:ZN 4.27294e-05
3 *2000:A2 *1294:67 2.7847e-05
4 *1998:A2 *2000:A2 4.22328e-05
5 *1999:A1 *2000:A2 8.96892e-06
6 *1999:A2 *2000:A2 1.64202e-05
7 *2000:A1 *2000:A2 2.52965e-06
8 *983:10 *2000:A2 1.05448e-05
*RES
1 *1999:ZN *2000:A2 25.75 
*END

*D_NET *1071 6.57233e-05
*CONN
*I *2002:A I *D OAI21_X1
*I *2001:ZN O *D NAND2_X1
*CAP
1 *2002:A 2.79652e-05
2 *2001:ZN 2.79652e-05
3 *2002:A *1309:55 1.27666e-06
4 *2001:A2 *2002:A 2.75346e-06
5 *2002:B2 *2002:A 6.48216e-07
6 *1064:41 *2002:A 2.24822e-06
7 *1064:45 *2002:A 2.86649e-06
*RES
1 *2001:ZN *2002:A 13.6071 
*END

*D_NET *1072 8.65395e-05
*CONN
*I *2005:A1 I *D NAND2_X2
*I *2003:ZN O *D NAND2_X2
*CAP
1 *2005:A1 3.54552e-05
2 *2003:ZN 3.54552e-05
3 *2005:A1 *2005:A2 1.56291e-05
4 *2005:A1 *1280:385 0
5 *1401:D *2005:A1 0
6 *1064:35 *2005:A1 0
*RES
1 *2003:ZN *2005:A1 13.75 
*END

*D_NET *1073 0.000137263
*CONN
*I *2005:A2 I *D NAND2_X2
*I *2004:ZN O *D NAND2_X1
*CAP
1 *2005:A2 5.49995e-05
2 *2004:ZN 5.49995e-05
3 *2005:A2 *1280:385 0
4 *1401:D *2005:A2 2.23871e-06
5 *2004:A2 *2005:A2 9.39619e-06
6 *2005:A1 *2005:A2 1.56291e-05
*RES
1 *2004:ZN *2005:A2 17.3929 
*END

*D_NET *1074 0.0033025
*CONN
*I *2159:A2 I *D NOR2_X2
*I *2007:A2 I *D NOR2_X2
*I *2234:A2 I *D NOR2_X2
*I *2083:A2 I *D NOR2_X2
*I *2006:ZN O *D INV_X1
*CAP
1 *2159:A2 4.68814e-05
2 *2007:A2 4.07087e-05
3 *2234:A2 5.18968e-05
4 *2083:A2 7.24164e-05
5 *2006:ZN 0.000249988
6 *1074:22 7.74318e-05
7 *1074:20 0.00042163
8 *1074:18 0.00042163
9 *1074:16 0.000290697
10 *2007:A2 *1295:75 7.65847e-06
11 *1074:16 *1406:CK 0
12 *1074:16 *1087:14 0
13 *1074:16 *1087:16 1.9777e-05
14 *1074:16 *1280:99 0
15 *1074:16 *1280:325 0
16 *1074:16 *1303:55 0
17 *1074:16 *1304:88 1.1431e-05
18 *1406:D *1074:16 6.06867e-06
19 *1773:A1 *1074:16 0
20 *1795:A1 *2083:A2 0
21 *1795:A2 *2159:A2 3.23723e-07
22 *1804:B2 *1074:16 4.5747e-05
23 *1807:A2 *2007:A2 5.55614e-07
24 *1807:A2 *1074:16 5.00979e-06
25 *1807:B1 *2007:A2 1.87637e-06
26 *1807:B2 *2007:A2 2.75346e-06
27 *1986:A *1074:16 3.2158e-05
28 *1992:A *1074:16 0.000112962
29 *2064:A2 *2083:A2 1.06179e-05
30 *2215:A1 *2083:A2 1.59582e-06
31 *2215:A1 *2159:A2 3.09143e-06
32 *2215:A1 *2234:A2 3.23723e-07
33 *2234:A1 *2159:A2 7.19036e-06
34 *86:8 *1074:16 7.19036e-06
35 *388:8 *1074:16 5.79042e-05
36 *471:10 *2083:A2 3.34038e-05
37 *837:40 *2007:A2 5.67608e-05
38 *837:40 *1074:16 9.99301e-05
39 *837:360 *2083:A2 4.04418e-05
40 *837:360 *2159:A2 5.1203e-06
41 *837:360 *2234:A2 2.25089e-06
42 *852:10 *1074:20 0.000726323
43 *852:25 *1074:20 0.000284161
44 *852:36 *1074:20 3.93956e-05
45 *853:12 *2159:A2 7.19234e-06
46 *1061:38 *1074:20 0
*RES
1 *2006:ZN *1074:16 48 
2 *1074:16 *1074:18 5 
3 *1074:18 *1074:20 65.3929 
4 *1074:20 *1074:22 5 
5 *1074:22 *2083:A2 14.75 
6 *1074:22 *2234:A2 5.75 
7 *1074:16 *2007:A2 10.75 
8 *2234:A2 *2159:A2 15.25 
*END

*D_NET *1075 0.00450243
*CONN
*I *2015:A2 I *D NAND2_X1
*I *2018:A2 I *D NAND2_X1
*I *2009:A I *D INV_X1
*I *2008:A2 I *D NAND2_X1
*I *2023:A2 I *D NAND2_X2
*I *2360:A2 I *D NAND2_X1
*I *2017:B2 I *D OAI21_X1
*I *2012:S I *D MUX2_X1
*I *2007:ZN O *D NOR2_X2
*CAP
1 *2015:A2 8.71307e-06
2 *2018:A2 0.000204308
3 *2009:A 0
4 *2008:A2 0
5 *2023:A2 0.000220876
6 *2360:A2 0
7 *2017:B2 0
8 *2012:S 0
9 *2007:ZN 9.88357e-05
10 *1075:61 0.000528726
11 *1075:59 0.000331567
12 *1075:53 0.000137379
13 *1075:47 0.000343022
14 *1075:38 0.000171982
15 *1075:34 0.000192016
16 *1075:27 0.000318741
17 *1075:14 0.000381204
18 *2018:A2 *2018:A1 1.21774e-06
19 *2018:A2 *2361:A1 3.90865e-05
20 *2018:A2 *1077:23 3.99514e-05
21 *2018:A2 *1299:45 5.10087e-06
22 *2018:A2 *1299:60 7.66675e-07
23 *2023:A2 *1411:CK 5.50748e-05
24 *2023:A2 *2023:A1 2.75346e-06
25 *2023:A2 *1077:36 0
26 *2023:A2 *1077:53 6.22013e-05
27 *2023:A2 *1298:61 0
28 *2023:A2 *1298:74 0
29 *1075:14 *1992:B 2.78969e-05
30 *1075:27 *2012:B 2.30833e-05
31 *1075:27 *2017:B1 1.14099e-05
32 *1075:27 *1295:100 4.20026e-05
33 *1075:34 *2017:A 6.22967e-06
34 *1075:34 *2017:B1 8.43215e-07
35 *1075:34 *1295:100 1.85187e-05
36 *1075:34 *1295:111 2.16072e-07
37 *1075:38 *2360:A1 8.43215e-07
38 *1075:38 *1295:100 2.39679e-06
39 *1075:38 *1295:111 9.9032e-06
40 *1075:47 *2360:A1 2.52965e-06
41 *1075:53 *1416:CK 1.97274e-05
42 *1075:53 *1883:B1 8.23378e-05
43 *1075:53 *1280:351 3.29223e-05
44 *1075:53 *1299:45 4.0126e-05
45 *1075:59 *1077:8 6.21255e-06
46 *1075:61 *2008:A1 2.00179e-05
47 *1075:61 *1280:351 0.000156881
48 *1075:61 *1280:364 0.000121385
49 *1414:D *1075:14 3.42186e-05
50 *1414:D *1075:27 4.24381e-05
51 *1416:D *1075:47 7.78005e-06
52 *1416:D *1075:53 1.61002e-06
53 *1763:A1 *2023:A2 9.22959e-05
54 *1803:A1 *1075:27 1.87106e-05
55 *1807:B2 *1075:14 1.29373e-05
56 *1808:A1 *1075:14 3.65597e-06
57 *1882:A1 *1075:61 1.26998e-05
58 *2271:A2 *1075:53 1.84849e-05
59 *2361:A2 *2018:A2 5.52959e-06
60 *2362:A2 *2018:A2 2.96955e-05
61 *2362:A2 *1075:38 7.16188e-07
62 *2362:A2 *1075:47 4.6613e-07
63 *2362:A2 *1075:53 4.18985e-05
64 *632:19 *1075:14 0
65 *632:19 *1075:27 0
66 *636:52 *1075:14 0.000104589
67 *636:76 *1075:61 0.00021382
68 *636:87 *1075:61 0
69 *636:98 *2023:A2 0
70 *837:40 *1075:14 1.0276e-05
71 *837:72 *1075:27 1.60974e-05
72 *837:412 *1075:27 2.6249e-05
73 *837:423 *1075:27 3.19164e-07
74 *837:438 *1075:38 2.9705e-05
75 *837:449 *2018:A2 0
76 *866:8 *2023:A2 9.22998e-06
*RES
1 *2007:ZN *1075:14 23.5 
2 *1075:14 *2012:S 10 
3 *1075:14 *1075:27 38.0357 
4 *1075:27 *2017:B2 5 
5 *1075:27 *1075:34 4.75 
6 *1075:34 *1075:38 16.6786 
7 *1075:38 *2360:A2 5 
8 *1075:38 *1075:47 7.75 
9 *1075:47 *1075:53 23.1786 
10 *1075:53 *1075:59 12.2857 
11 *1075:59 *1075:61 44.75 
12 *1075:61 *2023:A2 42.2857 
13 *1075:61 *2008:A2 5 
14 *1075:53 *2009:A 5 
15 *1075:47 *2018:A2 33.8572 
16 *1075:34 *2015:A2 5.92857 
*END

*D_NET *1076 0.000100609
*CONN
*I *2011:A1 I *D NAND2_X1
*I *2008:ZN O *D NAND2_X1
*CAP
1 *2011:A1 4.98827e-05
2 *2008:ZN 4.98827e-05
3 *2011:A1 *2011:A2 8.43215e-07
4 *2010:A2 *2011:A1 0
5 *636:98 *2011:A1 0
*RES
1 *2008:ZN *2011:A1 14.6786 
*END

*D_NET *1077 0.00411077
*CONN
*I *2014:B2 I *D OAI21_X1
*I *2013:A1 I *D NAND2_X1
*I *2022:B2 I *D OAI21_X1
*I *2021:A1 I *D NAND2_X1
*I *2024:A1 I *D NAND2_X1
*I *2010:A1 I *D NAND2_X1
*I *2019:A1 I *D NAND2_X1
*I *2361:A1 I *D NAND2_X1
*I *2009:ZN O *D INV_X1
*CAP
1 *2014:B2 0
2 *2013:A1 3.06147e-05
3 *2022:B2 0
4 *2021:A1 4.30544e-05
5 *2024:A1 0
6 *2010:A1 9.13036e-05
7 *2019:A1 0
8 *2361:A1 2.84881e-05
9 *2009:ZN 0.000118906
10 *1077:76 0.000146277
11 *1077:66 0.000133837
12 *1077:64 7.97919e-05
13 *1077:62 0.000482576
14 *1077:53 0.000607008
15 *1077:36 0.000650862
16 *1077:23 0.000572699
17 *1077:8 0.000364758
18 *2010:A1 *1411:CK 4.84832e-05
19 *2010:A1 *2011:A2 7.19036e-06
20 *2010:A1 *1308:12 9.62051e-07
21 *2013:A1 *2014:A 2.94455e-05
22 *2021:A1 *2022:A 1.18682e-05
23 *1077:8 *1416:CK 0
24 *1077:23 *2018:A1 7.72537e-06
25 *1077:23 *2020:A1 5.66515e-06
26 *1077:36 *1411:CK 0
27 *1077:53 *2023:A1 7.72537e-06
28 *1077:53 *2025:A1 8.11472e-05
29 *1077:53 *2025:A2 6.63762e-06
30 *1077:62 *1817:A 0
31 *1077:62 *1817:B1 0
32 *1077:62 *2025:A1 2.46019e-05
33 *1077:62 *2025:A2 0.000108285
34 *1077:76 *1413:CK 0
35 *1409:D *1077:62 0
36 *1410:D *1077:76 1.66698e-05
37 *1411:D *1077:36 1.59582e-06
38 *1415:D *2010:A1 2.94455e-05
39 *1416:D *1077:8 0
40 *1816:A2 *1077:64 1.38047e-05
41 *1817:B2 *1077:62 0
42 *1819:A2 *2021:A1 0
43 *1819:A2 *1077:76 0
44 *1820:A1 *1077:62 0
45 *1820:A1 *1077:64 0
46 *1820:A2 *1077:62 0
47 *1821:A1 *1077:62 0
48 *1993:A2 *1077:62 0
49 *2010:A2 *2010:A1 2.16072e-07
50 *2014:B1 *1077:64 4.9678e-06
51 *2018:A2 *2361:A1 3.90865e-05
52 *2018:A2 *1077:23 3.99514e-05
53 *2022:B1 *2021:A1 1.1315e-05
54 *2022:B1 *1077:76 8.43215e-07
55 *2023:A2 *1077:36 0
56 *2023:A2 *1077:53 6.22013e-05
57 *2271:A2 *1077:8 0
58 *2362:A2 *1077:8 0
59 *89:12 *1077:53 2.39679e-06
60 *89:12 *1077:62 1.69265e-05
61 *90:12 *2021:A1 4.54065e-05
62 *91:10 *1077:23 2.75346e-06
63 *91:10 *1077:36 1.52374e-05
64 *756:54 *2013:A1 9.24246e-06
65 *756:54 *1077:76 8.19063e-05
66 *756:69 *2013:A1 2.0679e-05
67 *837:449 *1077:23 0
68 *1075:59 *1077:8 6.21255e-06
*RES
1 *2009:ZN *1077:8 21.7857 
2 *1077:8 *2361:A1 13.75 
3 *1077:8 *1077:23 28.8572 
4 *1077:23 *2019:A1 5 
5 *1077:23 *1077:36 41 
6 *1077:36 *2010:A1 21.1786 
7 *1077:36 *1077:53 30.1786 
8 *1077:53 *2024:A1 5 
9 *1077:53 *1077:62 43.6786 
10 *1077:62 *1077:64 7.75 
11 *1077:64 *1077:66 5 
12 *1077:66 *1077:76 19.2143 
13 *1077:76 *2021:A1 10.9286 
14 *1077:76 *2022:B2 5 
15 *1077:66 *2013:A1 14.3214 
16 *1077:64 *2014:B2 5 
*END

*D_NET *1078 6.24216e-05
*CONN
*I *2011:A2 I *D NAND2_X1
*I *2010:ZN O *D NAND2_X1
*CAP
1 *2011:A2 2.27446e-05
2 *2010:ZN 2.27446e-05
3 *2011:A2 *1308:12 6.38328e-07
4 *2010:A1 *2011:A2 7.19036e-06
5 *2011:A1 *2011:A2 8.43215e-07
6 *636:98 *2011:A2 8.26038e-06
*RES
1 *2010:ZN *2011:A2 12.6786 
*END

*D_NET *1079 7.78537e-05
*CONN
*I *2014:A I *D OAI21_X1
*I *2013:ZN O *D NAND2_X1
*CAP
1 *2014:A 1.88016e-05
2 *2013:ZN 1.88016e-05
3 *1413:D *2014:A 1.21774e-06
4 *1816:A2 *2014:A 2.39679e-06
5 *2013:A1 *2014:A 2.94455e-05
6 *2014:B1 *2014:A 2.39679e-06
7 *93:8 *2014:A 4.79358e-06
*RES
1 *2013:ZN *2014:A 22.3571 
*END

*D_NET *1080 7.09113e-05
*CONN
*I *2017:A I *D OAI21_X1
*I *2015:ZN O *D NAND2_X1
*CAP
1 *2017:A 2.95874e-05
2 *2015:ZN 2.95874e-05
3 *2017:A *2017:B1 2.75346e-06
4 *2016:A *2017:A 2.75346e-06
5 *1075:34 *2017:A 6.22967e-06
*RES
1 *2015:ZN *2017:A 13.25 
*END

*D_NET *1081 0.000130536
*CONN
*I *2017:B1 I *D OAI21_X1
*I *2016:ZN O *D INV_X1
*CAP
1 *2017:B1 5.43911e-05
2 *2016:ZN 5.43911e-05
3 *2016:A *2017:B1 6.74733e-06
4 *2017:A *2017:B1 2.75346e-06
5 *1075:27 *2017:B1 1.14099e-05
6 *1075:34 *2017:B1 8.43215e-07
*RES
1 *2016:ZN *2017:B1 15.7857 
*END

*D_NET *1082 0.000103379
*CONN
*I *2020:A1 I *D NAND2_X1
*I *2018:ZN O *D NAND2_X1
*CAP
1 *2020:A1 4.59513e-05
2 *2018:ZN 4.59513e-05
3 *2020:A1 *2020:A2 4.9678e-06
4 *91:10 *2020:A1 8.43215e-07
5 *837:449 *2020:A1 0
6 *1077:23 *2020:A1 5.66515e-06
*RES
1 *2018:ZN *2020:A1 14.6786 
*END

*D_NET *1083 9.96449e-05
*CONN
*I *2020:A2 I *D NAND2_X1
*I *2019:ZN O *D NAND2_X1
*CAP
1 *2020:A2 2.88802e-05
2 *2019:ZN 2.88802e-05
3 *1882:A2 *2020:A2 1.55671e-05
4 *2020:A1 *2020:A2 4.9678e-06
5 *986:8 *2020:A2 2.13496e-05
*RES
1 *2019:ZN *2020:A2 24.2143 
*END

*D_NET *1084 0.000178223
*CONN
*I *2022:A I *D OAI21_X1
*I *2021:ZN O *D NAND2_X1
*CAP
1 *2022:A 7.32799e-05
2 *2021:ZN 7.32799e-05
3 *1820:B1 *2022:A 0
4 *2021:A1 *2022:A 1.18682e-05
5 *2022:B1 *2022:A 1.80284e-05
6 *90:12 *2022:A 1.76665e-06
*RES
1 *2021:ZN *2022:A 18.0357 
*END

*D_NET *1085 0.000482593
*CONN
*I *2025:A1 I *D NAND2_X2
*I *2023:ZN O *D NAND2_X2
*CAP
1 *2025:A1 0.000160753
2 *2023:ZN 0.000160753
3 *1409:D *2025:A1 1.07429e-05
4 *1932:A1 *2025:A1 0
5 *1937:A1 *2025:A1 0
6 *89:12 *2025:A1 4.4596e-05
7 *1034:8 *2025:A1 0
8 *1077:53 *2025:A1 8.11472e-05
9 *1077:62 *2025:A1 2.46019e-05
*RES
1 *2023:ZN *2025:A1 31.5357 
*END

*D_NET *1086 0.000371101
*CONN
*I *2025:A2 I *D NAND2_X2
*I *2024:ZN O *D NAND2_X1
*CAP
1 *2025:A2 0.000128089
2 *2024:ZN 0.000128089
3 *2025:A2 *1409:CK 0
4 *1077:53 *2025:A2 6.63762e-06
5 *1077:62 *2025:A2 0.000108285
*RES
1 *2024:ZN *2025:A2 35.1429 
*END

*D_NET *1087 0.00211386
*CONN
*I *2064:A1 I *D NOR2_X1
*I *2083:A1 I *D NOR2_X2
*I *2046:A1 I *D NOR2_X2
*I *2027:A1 I *D NOR2_X2
*I *2026:ZN O *D NAND2_X1
*CAP
1 *2064:A1 3.72837e-05
2 *2083:A1 0
3 *2046:A1 3.02904e-05
4 *2027:A1 0
5 *2026:ZN 7.54095e-05
6 *1087:36 0.000106331
7 *1087:25 0.000194884
8 *1087:16 0.000468448
9 *1087:14 0.000448311
10 *2046:A1 *1100:6 1.73839e-05
11 *2046:A1 *1100:12 2.22446e-05
12 *2064:A1 *1100:45 1.36877e-05
13 *2064:A1 *1111:8 1.11168e-06
14 *1087:14 *1749:A1 7.72792e-06
15 *1087:14 *1304:88 1.8599e-05
16 *1087:16 *1749:A1 5.64879e-06
17 *1087:25 *1100:45 2.84765e-06
18 *1087:36 *1100:45 2.74276e-05
19 *1773:A1 *1087:14 1.28122e-06
20 *1781:A1 *1087:14 2.0869e-05
21 *1795:A1 *2064:A1 3.09143e-06
22 *1992:A *1087:16 0.000125165
23 *2026:A1 *1087:14 1.26514e-05
24 *2064:A2 *2064:A1 3.09143e-06
25 *376:14 *2064:A1 1.34109e-07
26 *376:14 *1087:36 4.69382e-07
27 *388:8 *1087:16 0.000135737
28 *448:10 *2046:A1 8.5473e-06
29 *876:8 *1087:16 0.000168745
30 *876:8 *1087:25 4.43389e-05
31 *884:8 *1087:16 4.17551e-05
32 *884:8 *1087:25 4.61233e-05
33 *884:8 *1087:36 4.44496e-06
34 *1074:16 *1087:14 0
35 *1074:16 *1087:16 1.9777e-05
*RES
1 *2026:ZN *1087:14 19.3571 
2 *1087:14 *1087:16 55.8929 
3 *1087:16 *2027:A1 10 
4 *1087:16 *1087:25 14.5 
5 *1087:25 *2046:A1 13.75 
6 *1087:25 *1087:36 7.71429 
7 *1087:36 *2083:A1 10 
8 *1087:36 *2064:A1 14.3929 
*END

*D_NET *1088 0.00940518
*CONN
*I *2038:A2 I *D NAND2_X1
*I *2029:A I *D INV_X1
*I *2028:A2 I *D NAND2_X1
*I *2043:A2 I *D NAND2_X2
*I *2357:A2 I *D NAND2_X1
*I *2035:A2 I *D NAND2_X1
*I *2037:B2 I *D OAI21_X1
*I *2032:S I *D MUX2_X1
*I *2027:ZN O *D NOR2_X2
*CAP
1 *2038:A2 1.18159e-05
2 *2029:A 1.28749e-05
3 *2028:A2 7.32448e-05
4 *2043:A2 0.000128767
5 *2357:A2 5.07208e-05
6 *2035:A2 5.90551e-06
7 *2037:B2 0
8 *2032:S 4.53635e-05
9 *2027:ZN 0.000282421
10 *1088:84 0.000308946
11 *1088:82 0.00039022
12 *1088:72 0.000411143
13 *1088:57 0.000655112
14 *1088:55 0.000961766
15 *1088:51 0.000535097
16 *1088:38 7.02283e-05
17 *1088:27 2.44399e-05
18 *1088:23 0.000439276
19 *1088:12 0.000758138
20 *2028:A2 *2028:A1 1.5896e-05
21 *2028:A2 *1303:392 2.05499e-05
22 *2029:A *2061:A1 2.08416e-06
23 *2032:S *1422:CK 0
24 *2032:S *1303:110 0
25 *2035:A2 *2035:A1 2.52965e-06
26 *2035:A2 *2037:A 2.39679e-06
27 *2038:A2 *2039:A1 9.69259e-06
28 *2038:A2 *1294:161 3.85547e-06
29 *2043:A2 *2043:A1 1.58752e-05
30 *2043:A2 *1292:134 8.56923e-06
31 *2043:A2 *1303:392 0.00010811
32 *1088:12 *1422:CK 0
33 *1088:12 *1303:93 2.4928e-06
34 *1088:12 *1306:22 6.39118e-05
35 *1088:23 *1422:CK 0
36 *1088:23 *1280:137 0.000119901
37 *1088:23 *1280:158 0.000658084
38 *1088:23 *1280:175 0
39 *1088:23 *1295:212 3.92643e-05
40 *1088:23 *1306:58 0
41 *1088:27 *2037:A 6.85774e-07
42 *1088:27 *2037:B1 3.09143e-06
43 *1088:38 *1851:B1 2.25089e-06
44 *1088:38 *2035:A1 5.56848e-05
45 *1088:38 *2037:B1 8.43215e-07
46 *1088:51 *2035:A1 2.96955e-05
47 *1088:51 *2037:B1 5.11191e-06
48 *1088:55 *2058:A1 1.25189e-05
49 *1088:55 *2058:A2 6.1617e-06
50 *1088:55 *1280:183 3.22492e-05
51 *1088:55 *1280:195 0
52 *1088:57 *1877:B1 0
53 *1088:57 *2057:A1 1.54721e-05
54 *1088:57 *1102:20 6.34727e-05
55 *1088:57 *1280:195 0
56 *1088:72 *1102:20 3.01977e-05
57 *1088:72 *1294:161 1.26998e-05
58 *1088:82 *2039:A1 2.24497e-05
59 *1088:82 *2047:A2 0
60 *1088:82 *2061:A2 0
61 *1088:82 *2062:A1 3.59807e-05
62 *1088:82 *2063:A1 1.62705e-06
63 *1088:82 *2358:A1 5.52692e-06
64 *1088:82 *1100:88 0
65 *1088:82 *1102:24 1.46651e-05
66 *1088:82 *1102:39 0
67 *1088:82 *1294:161 2.3123e-05
68 *1088:82 *1298:164 5.56848e-05
69 *1088:84 *2062:A1 6.32202e-06
70 *1088:84 *2063:A1 2.38077e-06
71 *1425:D *1088:84 0
72 *1446:D *1088:23 0.000298385
73 *1792:B2 *1088:12 1.26998e-05
74 *1836:B1 *1088:55 0
75 *1851:A *1088:27 1.26998e-05
76 *1851:B2 *1088:23 1.96924e-05
77 *1851:B2 *1088:38 5.41015e-05
78 *1851:B2 *1088:51 8.85917e-05
79 *1854:A *1088:23 0.000415656
80 *1881:A1 *1088:57 0
81 *1881:A1 *1088:72 1.82277e-06
82 *1929:A2 *2043:A2 2.15387e-05
83 *1929:A2 *1088:84 6.66761e-05
84 *1930:B1 *2043:A2 2.5406e-05
85 *1930:B2 *2043:A2 3.83783e-05
86 *2062:A2 *1088:84 1.65484e-05
87 *2084:A2 *1088:72 1.44755e-05
88 *2088:A *1088:23 1.94663e-05
89 *2099:A2 *2357:A2 0
90 *100:8 *1088:55 6.44574e-06
91 *105:8 *2029:A 0
92 *376:27 *1088:23 0.00108541
93 *376:31 *1088:23 4.57382e-06
94 *376:40 *1088:23 1.84823e-05
95 *376:51 *1088:23 1.53357e-05
96 *595:16 *2038:A2 0
97 *609:97 *2357:A2 4.16464e-05
98 *609:108 *2357:A2 7.88026e-05
99 *609:197 *1088:82 0
100 *845:157 *1088:12 6.04218e-05
101 *845:168 *1088:12 3.31065e-05
102 *853:27 *1088:55 0
103 *853:27 *1088:57 3.8017e-05
104 *853:42 *1088:82 6.0406e-05
105 *853:59 *1088:82 0.000163001
106 *935:8 *1088:55 0
107 *986:8 *2043:A2 6.58849e-06
108 *1027:10 *2028:A2 1.02224e-05
109 *1027:10 *2043:A2 0
*RES
1 *2027:ZN *1088:12 43.1429 
2 *1088:12 *2032:S 14.25 
3 *1088:12 *1088:23 94.5715 
4 *1088:23 *1088:27 6.25 
5 *1088:27 *2037:B2 5 
6 *1088:27 *1088:38 8.71429 
7 *1088:38 *2035:A2 10.75 
8 *1088:38 *1088:51 12.0357 
9 *1088:51 *1088:55 49.6786 
10 *1088:55 *1088:57 51.25 
11 *1088:57 *2357:A2 21.3571 
12 *1088:57 *1088:72 19.75 
13 *1088:72 *1088:82 45.3214 
14 *1088:82 *1088:84 13.8214 
15 *1088:84 *2043:A2 38.5357 
16 *1088:84 *2028:A2 19.25 
17 *1088:82 *2029:A 11.25 
18 *1088:72 *2038:A2 11.6071 
*END

*D_NET *1089 0.000470105
*CONN
*I *2031:A1 I *D NAND2_X1
*I *2028:ZN O *D NAND2_X1
*CAP
1 *2031:A1 0.000168343
2 *2028:ZN 0.000168343
3 *2031:A1 *2067:A1 1.68643e-06
4 *2031:A1 *1292:119 0
5 *2031:A1 *1303:392 0
6 *1423:D *2031:A1 7.29164e-07
7 *1774:A1 *2031:A1 4.31693e-05
8 *1774:A2 *2031:A1 7.19036e-06
9 *876:81 *2031:A1 2.19823e-05
10 *1027:10 *2031:A1 5.86619e-05
*RES
1 *2028:ZN *2031:A1 30.1072 
*END

*D_NET *1090 0.0052057
*CONN
*I *2033:A1 I *D NAND2_X1
*I *2034:B2 I *D OAI21_X1
*I *2041:A1 I *D NAND2_X1
*I *2042:B2 I *D OAI21_X1
*I *2030:A1 I *D NAND2_X1
*I *2039:A1 I *D NAND2_X1
*I *2358:A1 I *D NAND2_X1
*I *2044:A1 I *D NAND2_X1
*I *2029:ZN O *D INV_X1
*CAP
1 *2033:A1 5.51897e-05
2 *2034:B2 0
3 *2041:A1 2.35306e-05
4 *2042:B2 3.01623e-05
5 *2030:A1 0
6 *2039:A1 9.03115e-05
7 *2358:A1 0.000106152
8 *2044:A1 0.000215715
9 *2029:ZN 0.000517927
10 *1090:95 0.0002333
11 *1090:67 8.08619e-05
12 *1090:63 0.000828666
13 *1090:61 0.000766068
14 *1090:52 0.000497457
15 *1090:21 0.000261435
16 *1090:8 0.000443839
17 *2039:A1 *2040:A1 4.38253e-05
18 *2039:A1 *1294:161 4.65284e-05
19 *2042:B2 *1317:56 9.41709e-05
20 *2044:A1 *2045:A2 0
21 *2044:A1 *1294:138 1.25407e-05
22 *2044:A1 *1294:161 6.83579e-05
23 *2044:A1 *1303:400 0
24 *2358:A1 *1100:88 0
25 *1090:8 *2061:A1 3.93825e-05
26 *1090:8 *1100:88 1.40569e-05
27 *1090:21 *1294:161 3.46344e-05
28 *1090:52 *1767:A1 2.36611e-05
29 *1090:52 *2031:A2 3.90891e-05
30 *1090:52 *2061:A1 1.57087e-05
31 *1090:52 *2063:A1 3.51536e-06
32 *1090:52 *2063:A2 0
33 *1090:52 *1113:44 0
34 *1090:52 *1113:61 0
35 *1090:52 *1303:712 0
36 *1090:61 *1767:A1 2.16072e-07
37 *1090:61 *1113:61 0
38 *1090:63 *1426:CK 0
39 *1090:63 *2060:A 0
40 *1090:63 *2071:B2 0
41 *1090:63 *1113:61 0
42 *1090:63 *1113:91 0
43 *1090:63 *1317:8 8.62472e-06
44 *1090:63 *1317:17 0
45 *1090:67 *1317:56 0.000167599
46 *1333:D *2041:A1 1.83411e-06
47 *1333:D *1090:63 0
48 *1333:D *1090:95 0
49 *1426:D *1090:63 2.24507e-05
50 *1467:A *1090:63 7.72537e-06
51 *1751:A1 *1090:52 9.62051e-07
52 *1751:A2 *1090:52 0
53 *1771:A2 *1090:52 0
54 *1772:B2 *1090:52 4.8503e-05
55 *1834:A3 *1090:63 0
56 *1875:A1 *2039:A1 0
57 *1875:A2 *2039:A1 0
58 *1881:A1 *2039:A1 4.75679e-07
59 *1901:B2 *1090:63 0
60 *1902:A2 *2041:A1 1.08036e-06
61 *1904:A1 *1090:63 3.58094e-06
62 *1905:A1 *1090:63 0
63 *1926:A1 *2044:A1 0
64 *2038:A2 *2039:A1 9.69259e-06
65 *2042:B1 *2042:B2 4.21607e-06
66 *2044:A2 *2044:A1 1.21774e-06
67 *2060:B1 *1090:63 0
68 *2071:B1 *1090:63 0
69 *2084:A2 *2039:A1 9.58715e-06
70 *2267:B2 *2358:A1 2.75346e-06
71 *2359:A2 *2358:A1 0
72 *98:8 *2041:A1 2.16072e-07
73 *146:12 *2042:B2 0
74 *378:63 *2039:A1 3.37286e-06
75 *593:10 *1090:63 1.00571e-05
76 *593:29 *1090:61 0
77 *593:29 *1090:63 0
78 *593:35 *1090:52 0
79 *593:43 *1090:52 2.11458e-06
80 *595:16 *2039:A1 0
81 *756:103 *2042:B2 9.30896e-05
82 *756:103 *1090:67 0.000171847
83 *853:42 *2358:A1 2.04211e-05
84 *1088:82 *2039:A1 2.24497e-05
85 *1088:82 *2358:A1 5.52692e-06
*RES
1 *2029:ZN *1090:8 27.75 
2 *1090:8 *2044:A1 34.6786 
3 *1090:8 *1090:21 8.39286 
4 *1090:21 *2358:A1 21.25 
5 *1090:21 *2039:A1 20.75 
6 *2029:ZN *1090:52 43.3214 
7 *1090:52 *2030:A1 5 
8 *1090:52 *1090:61 13.75 
9 *1090:61 *1090:63 61.8572 
10 *1090:63 *1090:67 14.0714 
11 *1090:67 *2042:B2 16.25 
12 *1090:67 *2041:A1 12.1786 
13 *1090:63 *1090:95 24.2143 
14 *1090:95 *2034:B2 10 
15 *1090:95 *2033:A1 15.6786 
*END

*D_NET *1091 0.000287759
*CONN
*I *2031:A2 I *D NAND2_X1
*I *2030:ZN O *D NAND2_X1
*CAP
1 *2031:A2 0.000124335
2 *2030:ZN 0.000124335
3 *2031:A2 *1767:A1 0
4 *2031:A2 *1113:61 0
5 *1090:52 *2031:A2 3.90891e-05
*RES
1 *2030:ZN *2031:A2 32.8214 
*END

*D_NET *1092 8.74148e-05
*CONN
*I *2034:A I *D OAI21_X1
*I *2033:ZN O *D NAND2_X1
*CAP
1 *2034:A 4.2401e-05
2 *2033:ZN 4.2401e-05
3 *2033:A2 *2034:A 2.16072e-07
4 *2034:B1 *2034:A 2.39679e-06
*RES
1 *2033:ZN *2034:A 14.9643 
*END

*D_NET *1093 6.36001e-05
*CONN
*I *2037:A I *D OAI21_X1
*I *2035:ZN O *D NAND2_X1
*CAP
1 *2037:A 2.66636e-05
2 *2035:ZN 2.66636e-05
3 *2037:A *2037:B1 7.19036e-06
4 *2037:A *1280:183 0
5 *2035:A2 *2037:A 2.39679e-06
6 *1088:27 *2037:A 6.85774e-07
*RES
1 *2035:ZN *2037:A 12.8571 
*END

*D_NET *1094 0.000243188
*CONN
*I *2037:B1 I *D OAI21_X1
*I *2036:ZN O *D INV_X1
*CAP
1 *2037:B1 5.36662e-05
2 *2036:ZN 5.36662e-05
3 *1851:B2 *2037:B1 0.000119619
4 *2037:A *2037:B1 7.19036e-06
5 *1088:27 *2037:B1 3.09143e-06
6 *1088:38 *2037:B1 8.43215e-07
7 *1088:51 *2037:B1 5.11191e-06
*RES
1 *2036:ZN *2037:B1 27.7857 
*END

*D_NET *1095 0.000223208
*CONN
*I *2040:A1 I *D NAND2_X1
*I *2038:ZN O *D NAND2_X1
*CAP
1 *2040:A1 4.94148e-05
2 *2038:ZN 4.94148e-05
3 *1875:A1 *2040:A1 0
4 *1878:B2 *2040:A1 2.39679e-06
5 *1881:A1 *2040:A1 4.11979e-06
6 *2039:A1 *2040:A1 4.38253e-05
7 *2039:A2 *2040:A1 6.68461e-05
8 *378:63 *2040:A1 7.19036e-06
*RES
1 *2038:ZN *2040:A1 27.2857 
*END

*D_NET *1096 5.56704e-05
*CONN
*I *2040:A2 I *D NAND2_X1
*I *2039:ZN O *D NAND2_X1
*CAP
1 *2040:A2 1.5368e-05
2 *2039:ZN 1.5368e-05
3 *2084:A2 *2040:A2 1.01341e-05
4 *378:63 *2040:A2 1.48003e-05
*RES
1 *2039:ZN *2040:A2 12.4286 
*END

*D_NET *1097 5.30734e-05
*CONN
*I *2042:A I *D OAI21_X1
*I *2041:ZN O *D NAND2_X1
*CAP
1 *2042:A 1.15431e-05
2 *2041:ZN 1.15431e-05
3 *756:103 *2042:A 2.99872e-05
*RES
1 *2041:ZN *2042:A 21.6071 
*END

*D_NET *1098 0.000192089
*CONN
*I *2045:A1 I *D NAND2_X2
*I *2043:ZN O *D NAND2_X2
*CAP
1 *2045:A1 6.26098e-05
2 *2043:ZN 6.26098e-05
3 *2045:A1 *2045:A2 3.88456e-06
4 *2045:A1 *2065:A2 1.18589e-06
5 *2045:A1 *1292:119 0
6 *2045:A1 *1294:138 2.14476e-05
7 *1417:D *2045:A1 3.35796e-05
8 *2044:A2 *2045:A1 4.06355e-06
9 *97:8 *2045:A1 2.70833e-06
*RES
1 *2043:ZN *2045:A1 19.2143 
*END

*D_NET *1099 8.87429e-05
*CONN
*I *2045:A2 I *D NAND2_X2
*I *2044:ZN O *D NAND2_X1
*CAP
1 *2045:A2 3.9401e-05
2 *2044:ZN 3.9401e-05
3 *2045:A2 *1294:138 4.87096e-06
4 *1928:B2 *2045:A2 1.18547e-06
5 *2044:A1 *2045:A2 0
6 *2045:A1 *2045:A2 3.88456e-06
7 *97:8 *2045:A2 0
*RES
1 *2044:ZN *2045:A2 14.6429 
*END

*D_NET *1100 0.00770715
*CONN
*I *2047:A2 I *D NAND2_X1
*I *2061:A2 I *D NAND2_X2
*I *2354:A2 I *D NAND2_X1
*I *2048:A I *D INV_X1
*I *2056:A2 I *D NAND2_X1
*I *2051:S I *D MUX2_X1
*I *2054:A2 I *D NAND2_X1
*I *2055:B2 I *D OAI21_X1
*I *2046:ZN O *D NOR2_X2
*CAP
1 *2047:A2 3.27268e-05
2 *2061:A2 2.35796e-05
3 *2354:A2 0
4 *2048:A 0
5 *2056:A2 7.40569e-05
6 *2051:S 0
7 *2054:A2 2.82879e-05
8 *2055:B2 5.43063e-06
9 *2046:ZN 2.80308e-05
10 *1100:90 5.63064e-05
11 *1100:88 0.000492108
12 *1100:86 0.000588899
13 *1100:77 0.000282614
14 *1100:64 0.000268849
15 *1100:49 0.000268327
16 *1100:45 0.000662874
17 *1100:43 0.000551629
18 *1100:16 0.000729975
19 *1100:14 0.000696256
20 *1100:12 0.000405766
21 *1100:6 0.000433797
22 *2047:A2 *1102:39 7.72792e-06
23 *2047:A2 *1298:154 1.2783e-05
24 *2047:A2 *1298:164 1.87637e-06
25 *2054:A2 *2054:A1 2.52965e-06
26 *2054:A2 *2055:A 7.19036e-06
27 *2055:B2 *1428:CK 7.72537e-06
28 *2055:B2 *2055:A 1.39839e-06
29 *2061:A2 *2063:A1 1.88334e-06
30 *2061:A2 *1298:154 7.65033e-06
31 *1100:12 *1797:B1 0
32 *1100:12 *1280:120 0
33 *1100:12 *1303:136 0
34 *1100:12 *1306:50 0.000230162
35 *1100:12 *1306:56 1.96073e-05
36 *1100:45 *1111:8 0
37 *1100:45 *1111:51 0
38 *1100:49 *1312:46 5.45325e-05
39 *1100:64 *1312:46 4.13413e-05
40 *1100:77 *2076:A1 0
41 *1100:77 *2077:A2 0
42 *1100:77 *2266:A 0
43 *1100:77 *1312:22 1.11799e-05
44 *1100:77 *1312:37 1.85225e-05
45 *1100:77 *1312:46 2.47947e-05
46 *1100:86 *2266:A 8.26635e-06
47 *1100:86 *2354:A1 6.60464e-06
48 *1100:88 *1424:CK 8.31383e-06
49 *1100:88 *2061:A1 2.5922e-05
50 *1100:88 *2266:A 4.0925e-07
51 *1100:88 *2266:B1 2.45893e-05
52 *1100:88 *2357:A1 0
53 *1428:D *2054:A2 3.01743e-06
54 *1428:D *1100:16 8.56789e-06
55 *1430:D *1100:16 8.10394e-05
56 *1432:D *1100:77 7.87811e-06
57 *1799:A *1100:12 0
58 *1800:A1 *1100:12 0
59 *1800:A2 *1100:12 0.000101359
60 *1802:A1 *1100:12 0
61 *1838:A2 *1100:45 1.1427e-05
62 *1840:B1 *1100:45 7.24418e-05
63 *1840:B2 *1100:45 2.24149e-05
64 *2046:A1 *1100:6 1.73839e-05
65 *2046:A1 *1100:12 2.22446e-05
66 *2055:B1 *2054:A2 2.94093e-05
67 *2064:A1 *1100:45 1.36877e-05
68 *2225:B1 *1100:45 2.99242e-05
69 *2244:A *1100:45 2.13227e-05
70 *2267:B2 *1100:88 0
71 *2277:A1 *1100:88 0
72 *2277:A3 *1100:88 1.33708e-05
73 *2277:A4 *1100:88 1.25215e-05
74 *2356:A1 *1100:77 0
75 *2356:A1 *1100:86 2.39679e-06
76 *2356:A2 *1100:77 1.48912e-05
77 *2356:A2 *1100:86 1.86809e-06
78 *2358:A1 *1100:88 0
79 *2359:A1 *1100:88 0
80 *2359:A2 *1100:88 1.16072e-05
81 *68:12 *1100:45 1.16091e-05
82 *70:10 *1100:45 0
83 *112:12 *1100:77 0
84 *448:10 *1100:6 6.74466e-06
85 *448:10 *1100:12 1.75859e-05
86 *459:8 *1100:45 5.20817e-05
87 *459:29 *1100:45 0.000179736
88 *459:33 *1100:45 3.82563e-06
89 *459:42 *1100:45 7.57311e-05
90 *471:10 *1100:45 2.26308e-06
91 *471:19 *1100:45 3.53102e-05
92 *471:41 *1100:45 7.62751e-06
93 *593:43 *1100:88 0.000101535
94 *609:197 *1100:88 0.000170734
95 *837:147 *1100:77 0
96 *853:25 *2056:A2 0.000211621
97 *853:27 *2056:A2 7.19036e-06
98 *876:8 *1100:45 6.60763e-05
99 *876:43 *1100:86 3.43212e-05
100 *876:43 *1100:88 1.04663e-05
101 *876:58 *1100:88 1.07733e-05
102 *1061:38 *1100:45 4.29023e-06
103 *1087:25 *1100:45 2.84765e-06
104 *1087:36 *1100:45 2.74276e-05
105 *1088:82 *2047:A2 0
106 *1088:82 *2061:A2 0
107 *1088:82 *1100:88 0
108 *1090:8 *1100:88 1.40569e-05
*RES
1 *2046:ZN *1100:6 8.25 
2 *1100:6 *1100:12 48.9286 
3 *1100:12 *1100:14 5 
4 *1100:14 *1100:16 79.6429 
5 *1100:16 *2055:B2 10.75 
6 *1100:16 *2054:A2 13.7143 
7 *1100:12 *2051:S 5 
8 *1100:6 *1100:43 5 
9 *1100:43 *1100:45 77.6072 
10 *1100:45 *1100:49 17.75 
11 *1100:49 *2056:A2 26.8571 
12 *1100:49 *1100:64 9.75 
13 *1100:64 *2048:A 5 
14 *1100:64 *1100:77 30.75 
15 *1100:77 *2354:A2 5 
16 *1100:77 *1100:86 11.2857 
17 *1100:86 *1100:88 59.6429 
18 *1100:88 *1100:90 5 
19 *1100:90 *2061:A2 12.2857 
20 *1100:90 *2047:A2 13.7143 
*END

*D_NET *1101 0.000534539
*CONN
*I *2050:A1 I *D NAND2_X1
*I *2047:ZN O *D NAND2_X1
*CAP
1 *2050:A1 0.000200238
2 *2047:ZN 0.000200238
3 *2050:A1 *1431:CK 6.93557e-05
4 *2050:A1 *2050:A2 1.37673e-05
5 *2050:A1 *1102:39 4.85436e-05
6 *2050:A1 *1298:154 2.39679e-06
7 *853:59 *2050:A1 0
*RES
1 *2047:ZN *2050:A1 34.6786 
*END

*D_NET *1102 0.00471187
*CONN
*I *2057:A1 I *D NAND2_X1
*I *2355:A1 I *D NAND2_X1
*I *2052:A1 I *D NAND2_X1
*I *2053:B2 I *D OAI21_X1
*I *2059:A1 I *D NAND2_X1
*I *2060:B2 I *D OAI21_X1
*I *2049:A1 I *D NAND2_X1
*I *2062:A1 I *D NAND2_X1
*I *2048:ZN O *D INV_X1
*CAP
1 *2057:A1 0.000135516
2 *2355:A1 0
3 *2052:A1 4.78011e-05
4 *2053:B2 0
5 *2059:A1 0
6 *2060:B2 4.05904e-05
7 *2049:A1 0
8 *2062:A1 5.69719e-05
9 *2048:ZN 5.58844e-05
10 *1102:74 0.000103008
11 *1102:56 0.000108004
12 *1102:48 0.000340713
13 *1102:39 0.000455938
14 *1102:24 0.00034098
15 *1102:20 0.000493358
16 *1102:18 0.000493931
17 *1102:12 0.000146396
18 *1102:8 0.000291061
19 *2057:A1 *1280:195 0
20 *2060:B2 *2060:A 1.55671e-05
21 *1102:12 *2076:A1 2.56699e-06
22 *1102:18 *2266:A 0
23 *1102:20 *1294:161 2.24327e-06
24 *1102:24 *1298:164 8.06304e-05
25 *1102:39 *2050:A2 6.63762e-06
26 *1102:39 *1298:154 4.30918e-06
27 *1102:39 *1298:164 9.52656e-06
28 *1102:48 *1431:CK 7.99278e-06
29 *1102:48 *2050:A2 2.75346e-06
30 *1426:D *2060:B2 1.77822e-05
31 *1432:D *1102:12 0
32 *1875:A1 *1102:20 0
33 *1877:B2 *2057:A1 0
34 *1877:B2 *1102:8 0
35 *1881:A1 *1102:20 0
36 *1888:A1 *1102:20 0
37 *1888:A2 *1102:20 5.11118e-06
38 *1888:A3 *1102:20 1.50372e-05
39 *1888:A4 *1102:20 1.04006e-05
40 *2047:A2 *1102:39 7.72792e-06
41 *2050:A1 *1102:39 4.85436e-05
42 *2268:A2 *1102:12 2.75346e-06
43 *2356:A2 *1102:18 1.52083e-06
44 *111:12 *1102:39 2.39679e-06
45 *111:12 *1102:48 1.61801e-05
46 *112:12 *1102:12 1.71137e-05
47 *112:12 *1102:18 0
48 *147:8 *1102:20 0
49 *148:10 *1102:8 0
50 *150:10 *2057:A1 2.30121e-05
51 *378:78 *2060:B2 0
52 *593:29 *1102:56 1.36922e-05
53 *593:43 *2062:A1 0
54 *609:197 *1102:39 0.000127913
55 *609:216 *1102:48 6.168e-05
56 *609:216 *1102:56 5.01029e-05
57 *853:27 *1102:20 0.00019037
58 *853:42 *1102:20 0.000336453
59 *853:59 *1102:20 0.000155635
60 *853:74 *1102:48 0
61 *853:85 *1102:48 1.7996e-05
62 *876:33 *2057:A1 2.3767e-06
63 *876:33 *1102:8 3.43034e-05
64 *876:43 *1102:12 0.000143199
65 *876:43 *1102:18 2.08098e-06
66 *1088:57 *2057:A1 1.54721e-05
67 *1088:57 *1102:20 6.34727e-05
68 *1088:72 *1102:20 3.01977e-05
69 *1088:82 *2062:A1 3.59807e-05
70 *1088:82 *1102:24 1.46651e-05
71 *1088:82 *1102:39 0
72 *1088:84 *2062:A1 6.32202e-06
*RES
1 *2048:ZN *1102:8 17.7143 
2 *1102:8 *1102:12 18.75 
3 *1102:12 *1102:18 14.3214 
4 *1102:18 *1102:20 64.75 
5 *1102:20 *1102:24 11.3571 
6 *1102:24 *2062:A1 16.3571 
7 *1102:24 *1102:39 36.1786 
8 *1102:39 *2049:A1 5 
9 *1102:39 *1102:48 30.75 
10 *1102:48 *1102:56 12.9643 
11 *1102:56 *2060:B2 19.3214 
12 *1102:56 *2059:A1 5 
13 *1102:48 *1102:74 5.67857 
14 *1102:74 *2053:B2 10 
15 *1102:74 *2052:A1 14.3214 
16 *1102:12 *2355:A1 5 
17 *1102:8 *2057:A1 25.1429 
*END

*D_NET *1103 5.09392e-05
*CONN
*I *2050:A2 I *D NAND2_X1
*I *2049:ZN O *D NAND2_X1
*CAP
1 *2050:A2 1.38904e-05
2 *2049:ZN 1.38904e-05
3 *2050:A1 *2050:A2 1.37673e-05
4 *1102:39 *2050:A2 6.63762e-06
5 *1102:48 *2050:A2 2.75346e-06
*RES
1 *2049:ZN *2050:A2 12.1786 
*END

*D_NET *1104 5.78797e-05
*CONN
*I *2053:A I *D OAI21_X1
*I *2052:ZN O *D NAND2_X1
*CAP
1 *2053:A 2.6543e-05
2 *2052:ZN 2.6543e-05
3 *2052:A2 *2053:A 2.39679e-06
4 *2053:B1 *2053:A 2.39679e-06
5 *378:74 *2053:A 0
6 *853:85 *2053:A 0
*RES
1 *2052:ZN *2053:A 12.8571 
*END

*D_NET *1105 7.44097e-05
*CONN
*I *2055:A I *D OAI21_X1
*I *2054:ZN O *D NAND2_X1
*CAP
1 *2055:A 2.48035e-05
2 *2054:ZN 2.48035e-05
3 *2055:A *1428:CK 2.23871e-06
4 *2055:A *2054:A1 1.39753e-05
5 *2054:A2 *2055:A 7.19036e-06
6 *2055:B2 *2055:A 1.39839e-06
*RES
1 *2054:ZN *2055:A 13.3571 
*END

*D_NET *1106 7.66973e-05
*CONN
*I *2058:A1 I *D NAND2_X1
*I *2056:ZN O *D NAND2_X1
*CAP
1 *2058:A1 3.14803e-05
2 *2056:ZN 3.14803e-05
3 *2058:A1 *2058:A2 1.21774e-06
4 *1088:55 *2058:A1 1.25189e-05
*RES
1 *2056:ZN *2058:A1 13.5357 
*END

*D_NET *1107 0.00014949
*CONN
*I *2058:A2 I *D NAND2_X1
*I *2057:ZN O *D NAND2_X1
*CAP
1 *2058:A2 5.75952e-05
2 *2057:ZN 5.75952e-05
3 *2058:A2 *2056:A1 1.06276e-05
4 *2057:A2 *2058:A2 3.49085e-06
5 *2058:A1 *2058:A2 1.21774e-06
6 *853:27 *2058:A2 1.28019e-05
7 *1088:55 *2058:A2 6.1617e-06
*RES
1 *2057:ZN *2058:A2 26.7143 
*END

*D_NET *1108 8.37166e-05
*CONN
*I *2060:A I *D OAI21_X1
*I *2059:ZN O *D NAND2_X1
*CAP
1 *2060:A 2.96157e-05
2 *2059:ZN 2.96157e-05
3 *2059:A2 *2060:A 2.39679e-06
4 *2060:B1 *2060:A 2.39679e-06
5 *2060:B2 *2060:A 1.55671e-05
6 *593:29 *2060:A 4.12459e-06
7 *1090:63 *2060:A 0
*RES
1 *2059:ZN *2060:A 23.5357 
*END

*D_NET *1109 0.000119315
*CONN
*I *2063:A1 I *D NAND2_X2
*I *2061:ZN O *D NAND2_X2
*CAP
1 *2063:A1 4.20655e-05
2 *2061:ZN 4.20655e-05
3 *2063:A1 *2063:A2 1.37673e-05
4 *2063:A1 *1298:154 1.01361e-05
5 *1425:D *2063:A1 1.87369e-06
6 *2061:A2 *2063:A1 1.88334e-06
7 *1088:82 *2063:A1 1.62705e-06
8 *1088:84 *2063:A1 2.38077e-06
9 *1090:52 *2063:A1 3.51536e-06
*RES
1 *2061:ZN *2063:A1 25.3929 
*END

*D_NET *1110 0.000107685
*CONN
*I *2063:A2 I *D NAND2_X2
*I *2062:ZN O *D NAND2_X1
*CAP
1 *2063:A2 4.1008e-05
2 *2062:ZN 4.1008e-05
3 *2063:A2 *1113:44 0
4 *1425:D *2063:A2 2.75346e-06
5 *2063:A1 *2063:A2 1.37673e-05
6 *105:8 *2063:A2 9.14865e-06
7 *1090:52 *2063:A2 0
*RES
1 *2062:ZN *2063:A2 14.8571 
*END

*D_NET *1111 0.00574394
*CONN
*I *2075:A2 I *D NAND2_X1
*I *2066:A I *D INV_X1
*I *2065:A2 I *D NAND2_X1
*I *2080:A2 I *D NAND2_X1
*I *2351:A2 I *D NAND2_X1
*I *2072:A2 I *D NAND2_X1
*I *2074:B2 I *D OAI21_X1
*I *2069:S I *D MUX2_X1
*I *2064:ZN O *D NOR2_X1
*CAP
1 *2075:A2 7.91517e-06
2 *2066:A 4.7526e-05
3 *2065:A2 0.000312836
4 *2080:A2 3.91582e-05
5 *2351:A2 0
6 *2072:A2 3.8465e-05
7 *2074:B2 1.0608e-05
8 *2069:S 5.27854e-05
9 *2064:ZN 6.15202e-05
10 *1111:98 0.000124447
11 *1111:89 0.000398897
12 *1111:70 0.000305979
13 *1111:61 0.000386237
14 *1111:57 0.000593678
15 *1111:51 0.000582437
16 *1111:27 0.000281006
17 *1111:14 0.000589051
18 *1111:8 0.000629095
19 *2065:A2 *1359:CK 1.08606e-05
20 *2065:A2 *2065:A1 1.21774e-06
21 *2065:A2 *1294:138 0.000124804
22 *2065:A2 *1313:71 4.80724e-05
23 *2066:A *2075:A1 7.99937e-06
24 *2066:A *1113:12 2.55787e-06
25 *2069:S *1438:CK 0
26 *2069:S *1297:145 2.83434e-06
27 *2072:A2 *2072:A1 4.9678e-06
28 *2072:A2 *2074:A 2.39679e-06
29 *2072:A2 *2074:B1 1.045e-05
30 *2074:B2 *2074:A 7.16188e-07
31 *2080:A2 *2080:A1 4.6837e-06
32 *1111:14 *1390:CK 8.43034e-05
33 *1111:14 *1438:CK 0
34 *1111:14 *1791:A 0.000223391
35 *1111:14 *1791:B1 3.65856e-06
36 *1111:14 *1297:116 1.02269e-05
37 *1111:14 *1297:133 4.9678e-06
38 *1111:14 *1297:141 2.97526e-06
39 *1111:27 *1438:CK 0
40 *1111:57 *1380:CK 6.44929e-05
41 *1111:57 *1839:B1 0
42 *1111:57 *1295:164 0
43 *1111:57 *1295:170 0
44 *1111:61 *2351:A1 7.96507e-06
45 *1111:61 *1113:12 0
46 *1111:61 *1295:164 0
47 *1111:70 *2351:A1 1.21774e-06
48 *1111:70 *1113:21 0
49 *1111:89 *2080:A1 0
50 *1111:89 *2081:A1 7.72792e-06
51 *1111:89 *1303:410 0
52 *1111:98 *1356:CK 0
53 *1436:D *2072:A2 2.16072e-07
54 *1436:D *2074:B2 2.39679e-06
55 *1436:D *1111:27 0
56 *1791:B2 *1111:14 0
57 *1797:B2 *2069:S 6.32461e-06
58 *1839:B2 *1111:57 2.55331e-06
59 *1855:A1 *1111:57 0
60 *1863:A1 *1111:57 0
61 *1863:A2 *2066:A 0
62 *1863:A2 *1111:61 2.56243e-06
63 *1863:A3 *1111:57 0
64 *1863:A3 *1111:61 2.16072e-07
65 *2045:A1 *2065:A2 1.18589e-06
66 *2064:A1 *1111:8 1.11168e-06
67 *2081:A2 *2065:A2 5.52692e-06
68 *2081:A2 *1111:89 6.57954e-06
69 *2082:A1 *2080:A2 4.79358e-06
70 *2220:A *1111:14 1.87418e-05
71 *2224:A *1111:57 3.76691e-05
72 *2353:A2 *1111:61 1.18232e-06
73 *70:10 *1111:8 7.99304e-05
74 *70:10 *1111:51 0.000120408
75 *118:8 *2069:S 3.66854e-05
76 *118:8 *1111:27 7.56973e-05
77 *148:8 *2066:A 0
78 *148:10 *2075:A2 6.32461e-06
79 *148:10 *1111:98 3.53389e-05
80 *436:14 *1111:8 0
81 *436:14 *1111:51 0
82 *436:36 *1111:51 0
83 *459:33 *1111:51 1.31814e-05
84 *459:42 *1111:51 1.86108e-05
85 *488:8 *2080:A2 4.26902e-05
86 *488:8 *1111:89 5.56848e-05
87 *876:27 *1111:57 0
88 *948:8 *1111:98 1.2752e-06
89 *962:12 *1111:57 4.26902e-05
90 *962:12 *1111:98 3.02372e-05
91 *1100:45 *1111:8 0
92 *1100:45 *1111:51 0
*RES
1 *2064:ZN *1111:8 17.0357 
2 *1111:8 *1111:14 47.75 
3 *1111:14 *2069:S 16.9286 
4 *1111:14 *1111:27 27.3929 
5 *1111:27 *2074:B2 11.25 
6 *1111:27 *2072:A2 14.2143 
7 *1111:8 *1111:51 35.7857 
8 *1111:51 *1111:57 39.0357 
9 *1111:57 *1111:61 25.25 
10 *1111:61 *2351:A2 5 
11 *1111:61 *1111:70 22.75 
12 *1111:70 *2080:A2 15.0357 
13 *1111:70 *1111:89 15.1429 
14 *1111:89 *2065:A2 41.75 
15 *1111:57 *1111:98 8.39286 
16 *1111:98 *2066:A 14.75 
17 *1111:98 *2075:A2 10.9286 
*END

*D_NET *1112 0.000179383
*CONN
*I *2068:A1 I *D NAND2_X1
*I *2065:ZN O *D NAND2_X1
*CAP
1 *2068:A1 8.927e-05
2 *2065:ZN 8.927e-05
3 *2068:A1 *2068:A2 8.43215e-07
4 *2068:A1 *1292:119 0
*RES
1 *2065:ZN *2068:A1 18.75 
*END

*D_NET *1113 0.00668403
*CONN
*I *2076:A1 I *D NAND2_X1
*I *2071:B2 I *D OAI21_X1
*I *2070:A1 I *D NAND2_X1
*I *2078:A1 I *D NAND2_X1
*I *2079:B2 I *D OAI21_X1
*I *2067:A1 I *D NAND2_X1
*I *2081:A1 I *D NAND2_X1
*I *2352:A1 I *D NAND2_X1
*I *2066:ZN O *D INV_X1
*CAP
1 *2076:A1 0.000175319
2 *2071:B2 6.96406e-05
3 *2070:A1 8.43142e-05
4 *2078:A1 6.15915e-06
5 *2079:B2 4.96527e-05
6 *2067:A1 2.42703e-05
7 *2081:A1 2.55905e-05
8 *2352:A1 0
9 *2066:ZN 0
10 *1113:91 0.000293631
11 *1113:65 0.000177526
12 *1113:63 0.00026139
13 *1113:61 0.00045554
14 *1113:59 0.00045554
15 *1113:46 3.04756e-05
16 *1113:44 0.000386919
17 *1113:40 0.000565884
18 *1113:21 0.000417426
19 *1113:12 0.00040735
20 *1113:6 0.000376003
21 *2076:A1 *1356:CK 6.56271e-05
22 *2076:A1 *1432:CK 2.59296e-05
23 *2076:A1 *2077:A2 7.29132e-05
24 *2076:A1 *1312:33 5.39412e-06
25 *2079:B2 *1317:19 0
26 *2081:A1 *2080:A1 6.9387e-05
27 *2081:A1 *1313:56 1.04875e-05
28 *1113:12 *1356:CK 1.46266e-05
29 *1113:12 *2075:A1 0
30 *1113:21 *1294:144 0
31 *1113:21 *1303:410 0
32 *1113:40 *2080:A1 0.000251581
33 *1113:40 *1292:138 1.21968e-05
34 *1113:40 *1313:56 1.9825e-05
35 *1113:44 *1425:CK 5.02464e-05
36 *1113:44 *1767:A1 4.97191e-06
37 *1113:44 *1292:138 0.000141827
38 *1113:44 *1303:712 3.76717e-05
39 *1113:44 *1316:34 4.32902e-06
40 *1113:61 *1767:A1 6.50994e-06
41 *1113:61 *1316:6 5.11574e-06
42 *1113:61 *1316:23 5.23289e-05
43 *1113:61 *1316:34 0.000160253
44 *1113:61 *1316:109 3.68448e-05
45 *1113:61 *1317:8 6.38784e-06
46 *1113:61 *1317:17 8.89022e-05
47 *1113:65 *1317:19 0
48 *1425:D *1113:44 0
49 *1434:D *2079:B2 5.57182e-06
50 *1437:D *2070:A1 0
51 *1437:D *2071:B2 2.55331e-06
52 *1751:A2 *1113:44 1.37673e-05
53 *1770:B2 *2067:A1 7.82575e-05
54 *1770:B2 *1113:46 1.29947e-05
55 *1774:A2 *2067:A1 2.39679e-06
56 *1827:A2 *2070:A1 2.30863e-05
57 *1827:A2 *1113:65 0
58 *1827:A2 *1113:91 0
59 *1834:A1 *2070:A1 2.69895e-05
60 *1894:A1 *1113:91 0
61 *1894:A2 *1113:91 9.62051e-07
62 *1905:A1 *1113:65 0.000103783
63 *1905:A1 *1113:91 0.000154109
64 *1905:B1 *1113:65 0.000146397
65 *1905:B2 *1113:65 6.15437e-06
66 *1906:A2 *1113:65 0
67 *1926:A1 *1113:44 1.30771e-05
68 *1938:A1 *1113:61 7.87454e-06
69 *2031:A1 *2067:A1 1.68643e-06
70 *2031:A2 *1113:61 0
71 *2063:A2 *1113:44 0
72 *2066:A *1113:12 2.55787e-06
73 *2071:B1 *2071:B2 1.21774e-06
74 *2078:A2 *2079:B2 3.02351e-05
75 *2078:A2 *1113:65 1.2203e-05
76 *2079:A *2078:A1 9.57492e-07
77 *2079:B1 *2079:B2 7.72537e-06
78 *2081:A2 *2081:A1 8.43215e-07
79 *2353:A1 *1113:12 1.83411e-06
80 *2353:A2 *1113:12 0
81 *105:8 *1113:44 0
82 *114:6 *2078:A1 7.19036e-06
83 *121:12 *1113:40 3.90865e-05
84 *148:10 *2076:A1 3.59487e-05
85 *148:10 *1113:12 1.52648e-05
86 *151:6 *2079:B2 8.26038e-06
87 *488:8 *1113:40 9.05228e-06
88 *595:26 *1113:21 0
89 *595:166 *2067:A1 7.85075e-05
90 *595:166 *1113:46 2.96955e-05
91 *595:189 *2070:A1 9.05228e-06
92 *609:97 *1113:40 0.000158063
93 *811:121 *1113:61 0.000159722
94 *876:75 *1113:46 4.43868e-06
95 *876:81 *2067:A1 7.72792e-06
96 *992:12 *2070:A1 3.18842e-05
97 *1027:10 *1113:44 1.66193e-05
98 *1090:52 *1113:44 0
99 *1090:52 *1113:61 0
100 *1090:61 *1113:61 0
101 *1090:63 *2071:B2 0
102 *1090:63 *1113:61 0
103 *1090:63 *1113:91 0
104 *1100:77 *2076:A1 0
105 *1102:12 *2076:A1 2.56699e-06
106 *1111:61 *1113:12 0
107 *1111:70 *1113:21 0
108 *1111:89 *2081:A1 7.72792e-06
*RES
1 *2066:ZN *1113:6 10 
2 *1113:6 *1113:12 25.8929 
3 *1113:12 *2352:A1 5 
4 *1113:12 *1113:21 24.75 
5 *1113:21 *2081:A1 14.3929 
6 *1113:21 *1113:40 33.1786 
7 *1113:40 *1113:44 49.6072 
8 *1113:44 *1113:46 1.60714 
9 *1113:46 *2067:A1 15.0714 
10 *1113:46 *1113:59 5 
11 *1113:59 *1113:61 60.25 
12 *1113:61 *1113:63 5 
13 *1113:63 *1113:65 16.5357 
14 *1113:65 *2079:B2 15.75 
15 *1113:65 *2078:A1 10.75 
16 *1113:63 *1113:91 21.1429 
17 *1113:91 *2070:A1 29.1071 
18 *1113:91 *2071:B2 12.75 
19 *1113:6 *2076:A1 36.5714 
*END

*D_NET *1114 0.000542713
*CONN
*I *2068:A2 I *D NAND2_X1
*I *2067:ZN O *D NAND2_X1
*CAP
1 *2068:A2 7.79376e-05
2 *2067:ZN 7.79376e-05
3 *2068:A2 *1316:44 8.08846e-05
4 *1439:D *2068:A2 4.76917e-06
5 *1783:A1 *2068:A2 0
6 *1783:A3 *2068:A2 7.75525e-05
7 *2068:A1 *2068:A2 8.43215e-07
8 *968:10 *2068:A2 0.000222788
*RES
1 *2067:ZN *2068:A2 35.0357 
*END

*D_NET *1115 0.000110186
*CONN
*I *2071:A I *D OAI21_X1
*I *2070:ZN O *D NAND2_X1
*CAP
1 *2071:A 3.8209e-05
2 *2070:ZN 3.8209e-05
3 *1437:D *2071:A 7.72537e-06
4 *2070:A2 *2071:A 1.77822e-05
5 *2071:B1 *2071:A 8.26038e-06
*RES
1 *2070:ZN *2071:A 24.3929 
*END

*D_NET *1116 5.61378e-05
*CONN
*I *2074:A I *D OAI21_X1
*I *2072:ZN O *D NAND2_X1
*CAP
1 *2074:A 2.65124e-05
2 *2072:ZN 2.65124e-05
3 *2074:A *2072:A1 0
4 *2072:A2 *2074:A 2.39679e-06
5 *2074:B2 *2074:A 7.16188e-07
*RES
1 *2072:ZN *2074:A 12.8571 
*END

*D_NET *1117 0.000162954
*CONN
*I *2074:B1 I *D OAI21_X1
*I *2073:ZN O *D INV_X1
*CAP
1 *2074:B1 5.9461e-05
2 *2073:ZN 5.9461e-05
3 *2074:B1 *2072:A1 3.35822e-05
4 *2072:A2 *2074:B1 1.045e-05
*RES
1 *2073:ZN *2074:B1 26.8929 
*END

*D_NET *1118 0.000302456
*CONN
*I *2077:A1 I *D NAND2_X1
*I *2075:ZN O *D NAND2_X1
*CAP
1 *2077:A1 6.55542e-05
2 *2075:ZN 6.55542e-05
3 *148:10 *2077:A1 0.000171347
*RES
1 *2075:ZN *2077:A1 29.8214 
*END

*D_NET *1119 0.000552647
*CONN
*I *2077:A2 I *D NAND2_X1
*I *2076:ZN O *D NAND2_X1
*CAP
1 *2077:A2 9.4494e-05
2 *2076:ZN 9.4494e-05
3 *2077:A2 *2075:A1 0
4 *2076:A1 *2077:A2 7.29132e-05
5 *148:10 *2077:A2 0.000273433
6 *837:125 *2077:A2 1.73125e-05
7 *1100:77 *2077:A2 0
*RES
1 *2076:ZN *2077:A2 37.5 
*END

*D_NET *1120 0.00178263
*CONN
*I *2387:A I *D HA_X1
*I *2403:A I *D HA_X1
*I *2402:A I *D HA_X1
*I *1325:D I *D DFFR_X2
*I *2386:A I *D HA_X1
*I *1325:QN O *D DFFR_X2
*CAP
1 *2387:A 0
2 *2403:A 6.08733e-05
3 *2402:A 9.28973e-05
4 *1325:D 0
5 *2386:A 5.485e-05
6 *1325:QN 0
7 *1120:45 0.00017553
8 *1120:10 9.95272e-05
9 *1120:8 0.000141079
10 *1120:6 0.000118161
11 *2386:A *1325:CK 1.72405e-05
12 *2386:A *1326:CK 2.41425e-05
13 *2386:A *2386:B 5.39428e-05
14 *2386:A *1304:120 1.27467e-05
15 *2402:A *1280:25 1.78064e-05
16 *2403:A *2403:B 2.94455e-05
17 *2403:A *1304:94 0.000105832
18 *2403:A *1304:120 0
19 *1120:8 *1280:78 4.80378e-06
20 *1120:8 *1304:120 1.72426e-05
21 *1120:10 *2386:B 8.56664e-06
22 *1120:10 *1280:27 4.45814e-05
23 *1120:10 *1280:78 1.58752e-05
24 *1120:10 *1304:120 0.000183008
25 *1120:45 *2403:B 0
26 *1120:45 *1280:78 0.000125835
27 *1120:45 *1303:10 0
28 *1120:45 *1303:842 0
29 *1120:45 *1304:94 0
30 *1120:45 *1304:120 0.000327533
31 *1525:A1 *2402:A 0
32 *167:19 *2402:A 8.43215e-07
33 *167:25 *2402:A 4.21989e-05
34 *627:10 *2403:A 8.06431e-06
*RES
1 *1325:QN *1120:6 10 
2 *1120:6 *1120:8 0.928572 
3 *1120:8 *1120:10 9.75 
4 *1120:10 *2386:A 18.0357 
5 *1120:10 *1325:D 10 
6 *1120:8 *2402:A 21.1786 
7 *1120:6 *1120:45 26.9643 
8 *1120:45 *2403:A 24.0714 
9 *1120:45 *2387:A 5 
*END

*D_NET *1278 0.00600372
*CONN
*P clk I
*I *1472:A I *D CLKBUF_X3
*CAP
1 clk 0.00161945
2 *1472:A 1.6931e-05
3 *1278:18 9.29766e-05
4 *1278:10 0.00127758
5 *1278:6 0.00282098
6 result[0] *1278:6 3.98405e-06
7 *424:33 *1472:A 4.37475e-06
8 *424:33 *1278:18 1.91677e-05
9 *487:10 *1278:18 3.88194e-06
10 *598:19 *1278:10 0.000144399
11 *884:53 *1472:A 0
12 *884:53 *1278:18 0
*RES
1 clk *1278:6 69.315 
2 *1278:6 *1278:10 47.52 
3 *1278:10 *1278:18 17.5714 
4 *1278:18 *1472:A 7.25 
*END

*D_NET *598 0.0124656
*CONN
*I *2669:A I *D CLKBUF_X3
*I *2668:A I *D CLKBUF_X3
*I *2667:A I *D CLKBUF_X3
*I *2666:A I *D CLKBUF_X3
*I *2660:A I *D CLKBUF_X3
*I *2661:A I *D CLKBUF_X3
*I *2659:A I *D CLKBUF_X3
*I *2658:A I *D CLKBUF_X3
*I *2663:A I *D CLKBUF_X3
*I *2664:A I *D CLKBUF_X3
*I *2665:A I *D CLKBUF_X3
*I *2662:A I *D CLKBUF_X3
*I *2657:A I *D CLKBUF_X3
*I *2656:A I *D CLKBUF_X3
*I *2655:A I *D CLKBUF_X3
*I *2654:A I *D CLKBUF_X3
*I *1472:Z O *D CLKBUF_X3
*CAP
1 *2669:A 0
2 *2668:A 3.61815e-05
3 *2667:A 0
4 *2666:A 0
5 *2660:A 1.06275e-05
6 *2661:A 2.51789e-05
7 *2659:A 0
8 *2658:A 0
9 *2663:A 0
10 *2664:A 2.20046e-05
11 *2665:A 2.58414e-05
12 *2662:A 1.79279e-05
13 *2657:A 0
14 *2656:A 0
15 *2655:A 1.55665e-05
16 *2654:A 0
17 *1472:Z 0
18 *598:323 9.56335e-05
19 *598:314 7.67501e-05
20 *598:312 2.3568e-05
21 *598:306 0.000491171
22 *598:288 3.60849e-05
23 *598:276 3.85966e-05
24 *598:274 0.00017504
25 *598:268 0.000970816
26 *598:247 5.63002e-05
27 *598:233 1.2888e-05
28 *598:219 0.000102058
29 *598:213 0.000651082
30 *598:199 0.00062416
31 *598:197 0.000459097
32 *598:187 0.00151149
33 *598:171 3.36226e-05
34 *598:155 0.000125682
35 *598:137 5.20895e-05
36 *598:135 0.000641341
37 *598:123 0.000601868
38 *598:111 0.000182391
39 *598:101 0.000622621
40 *598:82 6.03695e-05
41 *598:73 7.66736e-05
42 *598:71 1.63042e-05
43 *598:67 0.000123081
44 *598:49 3.44421e-05
45 *598:44 3.21525e-05
46 *598:37 2.51057e-05
47 *598:31 0.000518165
48 *598:23 0.000982787
49 *598:19 0.00115528
50 *598:11 0.00114147
51 *598:6 6.52982e-06
52 *2655:A *1412:CK 3.65322e-06
53 *2655:A *1305:25 7.30645e-06
54 *2660:A *1310:8 5.82683e-06
55 *2661:A *2137:A1 0
56 *2662:A *2678:A 1.82661e-06
57 *2664:A *1314:22 1.91498e-06
58 *2665:A *2333:A1 0
59 *2665:A *1314:26 7.0455e-06
60 *2668:A *1318:104 2.97287e-06
61 *598:19 *1278:10 0.000144399
62 *598:31 *2274:A1 8.23298e-06
63 *598:37 *1412:CK 2.49523e-06
64 *598:37 *845:46 0
65 *598:37 *1304:6 8.43215e-07
66 *598:44 *1412:CK 8.313e-06
67 *598:44 *845:46 0
68 *598:49 *1412:CK 8.78332e-06
69 *598:49 *845:46 0
70 *598:73 *2672:A 4.79202e-06
71 *598:82 *2672:A 3.83453e-06
72 *598:82 *1306:12 6.50581e-06
73 *598:82 *1306:135 0
74 *598:111 *2678:A 1.11334e-05
75 *598:111 *837:119 0
76 *598:111 *837:147 0
77 *598:111 *1299:121 6.01526e-05
78 *598:137 *2333:A1 0
79 *598:137 *1314:26 1.3482e-05
80 *598:155 *2333:A1 0
81 *598:155 *1314:22 2.75436e-05
82 *598:155 *1314:26 4.63768e-06
83 *598:197 *1034:10 6.03491e-07
84 *598:197 *1294:97 0
85 *598:199 *1034:10 2.10857e-05
86 *598:199 *1294:97 0
87 *598:213 *1294:97 0
88 *598:233 *1292:55 1.21311e-05
89 *598:274 *876:91 5.88059e-05
90 *598:276 *1016:10 8.9967e-06
91 *598:306 *1021:8 1.29152e-05
92 *598:312 *1361:CK 1.39839e-06
93 *598:314 *1361:CK 4.4488e-06
94 *598:323 *1361:CK 1.28548e-05
95 *598:323 *2194:A1 1.40196e-06
96 *598:323 *1318:104 1.05001e-05
97 *1368:D *598:155 0
98 *2194:A2 *2668:A 0
99 *2194:A2 *598:323 0
100 *2196:A1 *598:314 8.2465e-06
101 *2196:A1 *598:323 5.6716e-06
102 *2275:B2 *2655:A 0
103 *2275:B2 *598:49 0
104 *2334:A1 *2664:A 0
105 *2337:A1 *598:19 0
106 *145:8 *598:306 5.70378e-06
107 *401:33 *598:73 5.48206e-06
108 *401:33 *598:82 1.12486e-05
109 *436:69 *2664:A 8.43215e-07
110 *436:69 *598:155 0
111 *438:37 *2668:A 0
112 *493:8 *598:135 3.70259e-05
113 *506:8 *598:171 5.41538e-07
*RES
1 *1472:Z *598:6 10 
2 *598:6 *598:11 0.535715 
3 *598:11 *598:19 25.95 
4 *598:19 *598:23 15.54 
5 *598:23 *598:31 30.7457 
6 *598:31 *598:37 6.25 
7 *598:37 *2654:A 5 
8 *598:37 *598:44 1.82143 
9 *598:44 *598:49 2.17857 
10 *598:49 *2655:A 7.25 
11 *598:23 *598:67 12.5257 
12 *598:67 *598:71 5 
13 *598:71 *598:73 2.25 
14 *598:73 *598:82 12.0714 
15 *598:82 *2656:A 10 
16 *598:71 *2657:A 5 
17 *598:19 *598:101 20.01 
18 *598:101 *598:111 21.9443 
19 *598:111 *2662:A 7.25 
20 *598:101 *598:123 1.89 
21 *598:123 *598:135 40.8971 
22 *598:135 *598:137 2.67857 
23 *598:137 *2665:A 8.42857 
24 *598:135 *598:155 11.6071 
25 *598:155 *2664:A 7.25 
26 *598:123 *598:171 6.16143 
27 *598:171 *2663:A 10 
28 *598:11 *598:187 34.04 
29 *598:187 *598:197 25.3314 
30 *598:197 *598:199 7.03572 
31 *598:199 *598:213 33.2329 
32 *598:213 *598:219 10.6714 
33 *598:219 *2658:A 10 
34 *598:213 *598:233 6.53572 
35 *598:233 *2659:A 10 
36 *598:199 *598:247 7.75 
37 *598:247 *2661:A 7.25 
38 *598:197 *2660:A 11.3929 
39 *598:187 *598:268 16.17 
40 *598:268 *598:274 12.2 
41 *598:274 *598:276 3.35714 
42 *598:276 *2666:A 10 
43 *598:274 *598:288 3.92857 
44 *598:288 *2667:A 10 
45 *598:268 *598:306 29.7629 
46 *598:306 *598:312 5.75 
47 *598:312 *598:314 2.25 
48 *598:314 *598:323 7.42857 
49 *598:323 *2668:A 8.85714 
50 *598:312 *2669:A 5 
*END

*D_NET *1304 0.00700973
*CONN
*I *1414:CK I *D DFF_X1
*I *1406:CK I *D DFF_X1
*I *1326:CK I *D DFFR_X2
*I *1325:CK I *D DFFR_X2
*I *1327:CK I *D DFFR_X1
*I *1328:CK I *D DFFR_X1
*I *1398:CK I *D DFF_X1
*I *1396:CK I *D DFF_X1
*I *1340:CK I *D DFF_X1
*I *1342:CK I *D DFF_X1
*I *2670:A I *D INV_X1
*I *1404:CK I *D DFF_X1
*I *2654:Z O *D CLKBUF_X3
*CAP
1 *1414:CK 3.14282e-05
2 *1406:CK 7.81816e-05
3 *1326:CK 0.000177439
4 *1325:CK 6.92112e-06
5 *1327:CK 0
6 *1328:CK 0
7 *1398:CK 1.35799e-05
8 *1396:CK 0.000150331
9 *1340:CK 0
10 *1342:CK 0
11 *2670:A 0
12 *1404:CK 8.7896e-05
13 *2654:Z 2.7901e-05
14 *1304:120 0.0003896
15 *1304:106 0.000283743
16 *1304:96 0.000391069
17 *1304:94 0.000549185
18 *1304:88 0.000557086
19 *1304:51 0.000516539
20 *1304:36 0.000416828
21 *1304:30 9.75549e-05
22 *1304:28 0.000322555
23 *1304:26 0.000327547
24 *1304:8 0.000102976
25 *1304:6 0.000292184
26 *1326:CK *1325:RN 0
27 *1304:6 *1412:CK 3.90865e-05
28 *1304:8 *1412:CK 0
29 *1304:26 *1412:CK 8.26038e-06
30 *1326:D *1326:CK 3.74029e-06
31 *1327:D *1304:106 1.43952e-05
32 *1328:D *1304:106 1.26146e-05
33 *1340:D *1396:CK 2.39679e-06
34 *1340:D *1304:51 2.35264e-05
35 *1396:D *1396:CK 0
36 *1404:D *1404:CK 6.38328e-07
37 *1406:D *1406:CK 6.38328e-07
38 *1414:D *1414:CK 1.89995e-05
39 *1749:A1 *1304:88 7.72792e-06
40 *1773:A1 *1304:88 1.43238e-06
41 *1806:A1 *1414:CK 4.12261e-05
42 *1806:A1 *1304:28 0.000139054
43 *1806:A1 *1304:88 6.85774e-07
44 *1806:A2 *1304:28 4.80378e-06
45 *1806:A2 *1304:30 5.64879e-06
46 *1843:B2 *1396:CK 3.09143e-06
47 *1846:B1 *1304:26 1.43542e-05
48 *1943:A *1304:106 2.16072e-07
49 *1944:A *1326:CK 0
50 *1944:B *1326:CK 5.48965e-05
51 *1944:S *1304:106 2.89018e-05
52 *1973:A *1304:30 3.893e-05
53 *1973:A *1304:36 1.65458e-05
54 *1977:A *1396:CK 1.19839e-05
55 *1986:A *1406:CK 2.61812e-06
56 *1986:A *1304:88 3.76649e-05
57 *1986:A *1304:94 4.95998e-05
58 *1992:S *1304:88 0
59 *1997:A *1304:26 0
60 *1997:B1 *1304:26 0
61 *2275:B2 *1404:CK 0
62 *2380:A *1304:106 0.000159541
63 *2386:A *1325:CK 1.72405e-05
64 *2386:A *1326:CK 2.41425e-05
65 *2386:A *1304:120 1.27467e-05
66 *2403:A *1304:94 0.000105832
67 *2403:A *1304:120 0
68 *2403:B *1304:94 0
69 *2403:B *1304:96 0
70 *78:8 *1304:88 7.19036e-06
71 *84:6 *1304:26 3.83757e-05
72 *154:27 *1304:96 0
73 *154:27 *1304:106 0
74 *165:6 *1326:CK 1.62742e-05
75 *202:12 *1326:CK 1.45582e-05
76 *596:29 *1304:106 0
77 *598:37 *1304:6 8.43215e-07
78 *627:10 *1304:94 0
79 *636:8 *1398:CK 0
80 *636:8 *1304:36 6.50645e-06
81 *636:8 *1304:51 4.32144e-07
82 *636:10 *1304:51 0
83 *636:52 *1398:CK 0
84 *636:52 *1414:CK 4.47034e-07
85 *636:52 *1304:28 1.90574e-06
86 *636:52 *1304:36 0
87 *636:52 *1304:51 0
88 *636:52 *1304:88 4.12459e-06
89 *636:61 *1414:CK 2.08416e-06
90 *837:40 *1304:26 6.48216e-07
91 *837:55 *1414:CK 3.74027e-05
92 *845:40 *1414:CK 1.71012e-05
93 *845:40 *1304:28 8.92003e-05
94 *845:44 *1304:28 6.63045e-05
95 *845:46 *1404:CK 0
96 *845:46 *1304:88 3.09143e-06
97 *852:8 *1304:88 8.55469e-05
98 *884:8 *1406:CK 0
99 *1040:30 *1396:CK 2.65202e-05
100 *1061:10 *1304:88 1.57087e-05
101 *1062:17 *1304:26 0
102 *1062:17 *1304:88 9.49258e-06
103 *1074:16 *1406:CK 0
104 *1074:16 *1304:88 1.1431e-05
105 *1087:14 *1304:88 1.8599e-05
106 *1120:8 *1304:120 1.72426e-05
107 *1120:10 *1304:120 0.000183008
108 *1120:45 *1304:94 0
109 *1120:45 *1304:120 0.000327533
110 *1280:78 *1304:94 0
111 *1280:78 *1304:120 1.44464e-05
112 *1280:95 *1304:94 0
113 *1280:308 *1406:CK 0
114 *1280:308 *1304:94 0
115 *1280:329 *1304:26 9.9032e-06
116 *1295:75 *1414:CK 1.26998e-05
117 *1295:75 *1304:26 0
118 *1297:10 *1304:51 0
119 *1297:45 *1304:28 1.33704e-05
120 *1297:45 *1304:30 4.55653e-05
121 *1297:45 *1304:36 1.58752e-05
122 *1297:53 *1304:26 1.13365e-05
123 *1300:14 *1304:106 1.32348e-05
124 *1300:27 *1304:106 5.70421e-05
125 *1300:38 *1304:106 6.92212e-05
126 *1303:10 *1304:106 0
127 *1303:16 *1326:CK 1.8643e-05
128 *1303:55 *1406:CK 3.09411e-06
*RES
1 *2654:Z *1304:6 8.75 
2 *1304:6 *1304:8 1.60714 
3 *1304:8 *1404:CK 14.3929 
4 *1304:8 *2670:A 5 
5 *1304:6 *1304:26 34.25 
6 *1304:26 *1304:28 9.75 
7 *1304:28 *1304:30 6.35715 
8 *1304:30 *1304:36 11.0357 
9 *1304:36 *1342:CK 5 
10 *1304:36 *1304:51 48.1429 
11 *1304:51 *1340:CK 5 
12 *1304:51 *1396:CK 21.8571 
13 *1304:30 *1398:CK 11.25 
14 *1304:28 *1304:88 39.1072 
15 *1304:88 *1304:94 32.75 
16 *1304:94 *1304:96 10.25 
17 *1304:96 *1304:106 45.5 
18 *1304:106 *1328:CK 5 
19 *1304:96 *1327:CK 5 
20 *1304:94 *1304:120 36.4643 
21 *1304:120 *1325:CK 10.9286 
22 *1304:120 *1326:CK 31.4286 
23 *1304:88 *1406:CK 17.7857 
24 *1304:26 *1414:CK 15.5714 
*END

*D_NET *1314 0.00373889
*CONN
*I *1368:CK I *D DFF_X1
*I *1334:CK I *D DFF_X1
*I *1332:CK I *D DFF_X1
*I *1376:CK I *D DFF_X1
*I *1384:CK I *D DFF_X1
*I *1448:CK I *D DFF_X1
*I *1443:CK I *D DFF_X1
*I *1427:CK I *D DFF_X1
*I *2680:A I *D INV_X2
*I *2664:Z O *D CLKBUF_X3
*CAP
1 *1368:CK 1.96607e-05
2 *1334:CK 7.07699e-05
3 *1332:CK 0
4 *1376:CK 5.72021e-05
5 *1384:CK 7.61952e-06
6 *1448:CK 5.73796e-05
7 *1443:CK 1.56054e-05
8 *1427:CK 0.00012831
9 *2680:A 8.10723e-05
10 *2664:Z 0.000146403
11 *1314:91 0.000225158
12 *1314:76 0.000381752
13 *1314:65 0.000392152
14 *1314:34 0.000267217
15 *1314:30 0.000299405
16 *1314:26 0.000565771
17 *1314:22 0.000317667
18 *1314:22 *1315:14 4.88546e-05
19 *1314:26 *1315:14 6.53753e-05
20 result[7] *1334:CK 0
21 *1332:D *1314:91 2.23415e-06
22 *1334:D *1334:CK 6.38328e-07
23 *1384:D *1384:CK 9.62051e-07
24 *1443:D *1427:CK 4.29819e-05
25 *1443:D *1443:CK 1.2453e-05
26 *1506:A *1334:CK 0
27 *1506:A *1314:91 0
28 *1642:A *1334:CK 0
29 *1876:A2 *1314:34 2.58428e-06
30 *1880:A1 *1314:34 0
31 *2057:A2 *1427:CK 7.72792e-06
32 *2095:A1 *1448:CK 0
33 *2095:A1 *1314:34 0
34 *2180:A *2680:A 1.76665e-06
35 *2329:A1 *1314:65 9.34938e-05
36 *2333:A1 *1314:26 0
37 *2334:A1 *2680:A 0
38 *2334:A1 *1314:22 6.07323e-06
39 *2348:A1 *1314:26 2.41398e-05
40 *2348:A2 *1314:26 1.60038e-06
41 *2348:A2 *1314:30 0
42 *2664:A *1314:22 1.91498e-06
43 *2665:A *1314:26 7.0455e-06
44 *107:12 *1427:CK 0
45 *123:12 *1314:34 0
46 *148:10 *1314:30 1.39839e-05
47 *148:10 *1314:65 2.59872e-05
48 *148:10 *1314:76 2.16425e-05
49 *148:10 *1314:91 1.01672e-05
50 *150:10 *1427:CK 0
51 *376:65 *1427:CK 0
52 *376:65 *1443:CK 4.32144e-07
53 *376:65 *1314:34 4.12562e-05
54 *376:72 *1314:34 1.60494e-06
55 *378:6 *1448:CK 1.33236e-05
56 *378:6 *1314:34 5.75996e-06
57 *436:42 *1314:34 0
58 *436:52 *1314:26 0
59 *436:69 *2680:A 6.38784e-06
60 *436:73 *2680:A 5.35001e-05
61 *438:8 *2680:A 3.96215e-05
62 *448:40 *1376:CK 1.42898e-05
63 *493:8 *1368:CK 5.53323e-05
64 *598:137 *1314:26 1.3482e-05
65 *598:155 *1314:22 2.75436e-05
66 *598:155 *1314:26 4.63768e-06
67 *1280:195 *1427:CK 2.40456e-05
68 *1280:221 *1314:26 0
69 *1299:153 *1314:26 1.28987e-05
*RES
1 *2664:Z *2680:A 21.1071 
2 *2664:Z *1314:22 13.75 
3 *1314:22 *1314:26 31.25 
4 *1314:26 *1314:30 18.1429 
5 *1314:30 *1314:34 18.75 
6 *1314:34 *1427:CK 24.6429 
7 *1314:34 *1443:CK 11.6786 
8 *1314:30 *1448:CK 11.25 
9 *1314:26 *1314:65 25.3572 
10 *1314:65 *1384:CK 10.75 
11 *1314:65 *1314:76 19.9286 
12 *1314:76 *1376:CK 16.25 
13 *1314:76 *1314:91 21.7143 
14 *1314:91 *1332:CK 5 
15 *1314:91 *1334:CK 12.3571 
16 *1314:22 *1368:CK 17.9643 
*END

*D_NET *1315 0.00445624
*CONN
*I *1392:CK I *D DFF_X1
*I *1336:CK I *D DFF_X1
*I *1371:CK I *D DFF_X1
*I *1363:CK I *D DFF_X1
*I *1419:CK I *D DFF_X1
*I *1387:CK I *D DFF_X1
*I *1379:CK I *D DFF_X1
*I *2681:A I *D INV_X4
*I *2665:Z O *D CLKBUF_X3
*CAP
1 *1392:CK 7.65137e-05
2 *1336:CK 0.000106417
3 *1371:CK 1.17727e-05
4 *1363:CK 4.56211e-05
5 *1419:CK 0.00017147
6 *1387:CK 0
7 *1379:CK 6.09339e-06
8 *2681:A 1.34608e-05
9 *2665:Z 8.80627e-05
10 *1315:97 0.000220962
11 *1315:71 0.000396299
12 *1315:52 0.000232628
13 *1315:46 0.000329793
14 *1315:40 0.000318336
15 *1315:29 0.000190299
16 *1315:14 0.000217507
17 *1336:D *1336:CK 6.38328e-07
18 *1371:D *1336:CK 8.08825e-05
19 *1371:D *1315:97 5.62244e-05
20 *1387:D *1315:52 4.39587e-05
21 *1387:D *1315:71 5.49644e-05
22 *1387:D *1315:97 4.44127e-06
23 *1392:D *1392:CK 5.53323e-05
24 *1871:B1 *1379:CK 0
25 *1873:A2 *1315:97 9.51636e-05
26 *1874:A2 *1315:52 4.9678e-06
27 *1874:A2 *1315:71 2.52965e-06
28 *1874:B1 *1315:71 0
29 *1874:B2 *1315:71 2.97647e-05
30 *1875:A1 *1419:CK 3.98918e-06
31 *1875:A1 *1315:71 0
32 *2190:A2 *1419:CK 1.29947e-05
33 *2190:A2 *1315:71 4.24402e-05
34 *2191:A2 *1419:CK 2.2652e-05
35 *2207:A1 *1336:CK 2.90169e-05
36 *2207:A1 *1315:97 0.000130192
37 *2227:A2 *1379:CK 7.72537e-06
38 *2245:A1 *1315:46 0
39 *2246:A1 *1315:97 0.00010583
40 *2247:A2 *1315:46 3.09143e-06
41 *2261:B2 *1315:14 2.86475e-06
42 *2334:A2 *1315:14 3.83732e-05
43 *2335:A2 *2681:A 6.75352e-05
44 *2335:A2 *1315:29 2.94113e-05
45 *59:12 *1315:46 2.00802e-05
46 *152:8 *1392:CK 4.82275e-05
47 *152:8 *2681:A 6.75352e-05
48 *152:8 *1315:29 0.000277059
49 *152:8 *1315:40 4.83739e-05
50 *438:17 *1315:71 2.24534e-05
51 *438:28 *1363:CK 1.18109e-05
52 *438:28 *1315:71 2.52965e-06
53 *448:74 *1336:CK 3.19881e-05
54 *450:14 *1336:CK 0
55 *450:14 *1371:CK 1.19839e-05
56 *461:84 *1315:46 1.82151e-05
57 *471:57 *1315:46 0
58 *471:66 *1315:46 0
59 *471:83 *1315:97 1.61249e-06
60 *473:25 *1371:CK 0
61 *837:235 *1392:CK 2.52965e-06
62 *973:10 *1315:71 0
63 *1280:221 *1315:14 1.05461e-05
64 *1280:229 *1315:29 0
65 *1280:235 *1315:52 2.83077e-06
66 *1280:235 *1315:71 4.32144e-07
67 *1290:12 *1336:CK 0
68 *1294:180 *1419:CK 0.00023657
69 *1294:186 *1315:71 3.89741e-05
70 *1294:254 *1315:52 8.47934e-05
71 *1294:254 *1315:71 5.39659e-06
72 *1294:254 *1315:97 3.4802e-05
73 *1303:504 *1315:71 6.3924e-06
74 *1303:508 *1363:CK 0
75 *1303:508 *1315:71 6.65423e-06
76 *1314:22 *1315:14 4.88546e-05
77 *1314:26 *1315:14 6.53753e-05
*RES
1 *2665:Z *1315:14 32.3571 
2 *1315:14 *2681:A 13.6429 
3 *1315:14 *1315:29 17.5357 
4 *1315:29 *1379:CK 10.75 
5 *1315:29 *1315:40 7.71429 
6 *1315:40 *1315:46 28.75 
7 *1315:46 *1315:52 13.2857 
8 *1315:52 *1387:CK 5 
9 *1315:52 *1315:71 37.8572 
10 *1315:71 *1419:CK 32.5357 
11 *1315:71 *1363:CK 15 
12 *1315:46 *1315:97 22.6429 
13 *1315:97 *1371:CK 11.25 
14 *1315:97 *1336:CK 23.5714 
15 *1315:40 *1392:CK 20.5 
*END

*D_NET *1316 0.00494731
*CONN
*I *1426:CK I *D DFF_X1
*I *1442:CK I *D DFF_X1
*I *1425:CK I *D DFF_X1
*I *1439:CK I *D DFF_X1
*I *1355:CK I *D DFF_X1
*I *1455:CK I *D DFF_X1
*I *1423:CK I *D DFF_X1
*I *2682:A I *D INV_X4
*I *2666:Z O *D CLKBUF_X3
*CAP
1 *1426:CK 0.000119111
2 *1442:CK 8.29974e-05
3 *1425:CK 8.63172e-05
4 *1439:CK 1.22064e-05
5 *1355:CK 0.000262063
6 *1455:CK 5.85489e-05
7 *1423:CK 0
8 *2682:A 4.57187e-05
9 *2666:Z 0.000158265
10 *1316:109 0.000309001
11 *1316:60 0.000285329
12 *1316:44 0.000565367
13 *1316:40 0.000168455
14 *1316:34 0.000283723
15 *1316:23 0.000218089
16 *1316:6 0.000197501
17 *1439:D *1439:CK 9.62051e-07
18 *1439:D *1316:40 9.62051e-07
19 *1442:D *1442:CK 1.34642e-05
20 *1455:D *1455:CK 3.5108e-06
21 *1776:A2 *1455:CK 4.9678e-06
22 *1776:A2 *1316:60 5.26342e-06
23 *1780:A1 *1316:60 1.3143e-06
24 *1780:A2 *1316:60 8.43215e-07
25 *1780:B2 *1316:60 1.87256e-05
26 *1782:A1 *1316:60 1.52083e-06
27 *1783:A1 *1316:40 3.96032e-05
28 *1783:A3 *1316:44 0.000196797
29 *1783:A4 *1355:CK 0
30 *1866:B1 *1316:60 6.92186e-06
31 *1869:A1 *1316:60 5.9317e-05
32 *1901:B2 *1426:CK 1.95854e-05
33 *1931:A1 *1316:23 4.99246e-05
34 *1931:A1 *1316:34 1.88906e-05
35 *1938:A1 *1316:6 3.90865e-05
36 *1938:A2 *2682:A 9.58534e-06
37 *1938:A2 *1316:6 2.19783e-05
38 *1938:A3 *2682:A 6.74733e-06
39 *1938:A3 *1316:23 6.06867e-06
40 *2059:A2 *1426:CK 1.28122e-06
41 *2060:B1 *1426:CK 2.69389e-05
42 *2068:A2 *1316:44 8.08846e-05
43 *2097:A1 *1316:109 7.19036e-06
44 *2097:A2 *1316:109 4.78395e-06
45 *2098:A *1316:109 9.57492e-07
46 *2098:B1 *1426:CK 1.56074e-06
47 *2098:B1 *1442:CK 7.15237e-06
48 *2098:B2 *1442:CK 9.65425e-07
49 *2106:A1 *1455:CK 2.16668e-07
50 *2106:A1 *1316:60 1.76665e-06
51 *2170:A1 *1355:CK 0
52 *2172:A1 *1355:CK 1.64377e-05
53 *151:6 *1355:CK 0
54 *391:20 *1455:CK 4.12459e-06
55 *391:20 *1316:60 6.54825e-05
56 *391:28 *1455:CK 1.46795e-05
57 *424:37 *1455:CK 8.20289e-06
58 *593:10 *1426:CK 8.58678e-06
59 *593:29 *1426:CK 0
60 *609:35 *1316:60 1.60274e-05
61 *811:121 *1316:109 2.77515e-05
62 *866:8 *1316:44 0.000128615
63 *866:8 *1316:60 0.000396479
64 *880:16 *1316:60 0
65 *968:10 *1425:CK 5.64879e-06
66 *968:10 *1316:40 7.93834e-05
67 *968:10 *1316:44 3.77199e-05
68 *1027:10 *1425:CK 4.94032e-05
69 *1027:10 *1316:34 0.000146395
70 *1034:10 *2682:A 1.74342e-06
71 *1090:63 *1426:CK 0
72 *1113:44 *1425:CK 5.02464e-05
73 *1113:44 *1316:34 4.32902e-06
74 *1113:61 *1316:6 5.11574e-06
75 *1113:61 *1316:23 5.23289e-05
76 *1113:61 *1316:34 0.000160253
77 *1113:61 *1316:109 3.68448e-05
78 *1292:119 *1439:CK 0
79 *1292:119 *1316:40 0
80 *1303:712 *1425:CK 1.2453e-05
81 *1303:712 *1316:40 0.000106626
*RES
1 *2666:Z *1316:6 11.8571 
2 *1316:6 *2682:A 20.1071 
3 *1316:6 *1316:23 13.75 
4 *1316:23 *1423:CK 5 
5 *1316:23 *1316:34 24.6786 
6 *1316:34 *1316:40 18.3571 
7 *1316:40 *1316:44 21.5357 
8 *1316:44 *1316:60 48 
9 *1316:60 *1455:CK 11.9286 
10 *1316:44 *1355:CK 36.75 
11 *1316:40 *1439:CK 6.25 
12 *1316:34 *1425:CK 22.6786 
13 *2666:Z *1316:109 22.8571 
14 *1316:109 *1442:CK 17.9286 
15 *1316:109 *1426:CK 23.1786 
*END

*D_NET *1317 0.00577796
*CONN
*I *1333:CK I *D DFF_X1
*I *1330:CK I *D DFF_X1
*I *1335:CK I *D DFF_X1
*I *1357:CK I *D DFF_X1
*I *1421:CK I *D DFF_X1
*I *1437:CK I *D DFF_X1
*I *1418:CK I *D DFF_X1
*I *1434:CK I *D DFF_X1
*I *1353:CK I *D DFF_X1
*I *2683:A I *D INV_X2
*I *2667:Z O *D CLKBUF_X3
*CAP
1 *1333:CK 9.80991e-05
2 *1330:CK 9.36367e-05
3 *1335:CK 8.71307e-06
4 *1357:CK 0.000138421
5 *1421:CK 5.41966e-05
6 *1437:CK 9.07273e-05
7 *1418:CK 8.73249e-06
8 *1434:CK 0
9 *1353:CK 0.000296038
10 *2683:A 0
11 *2667:Z 4.50207e-05
12 *1317:106 0.000237402
13 *1317:95 0.000229006
14 *1317:80 0.000363918
15 *1317:56 0.000325651
16 *1317:45 0.000234369
17 *1317:41 0.000272205
18 *1317:34 0.000181595
19 *1317:19 0.000429555
20 *1317:17 0.000351968
21 *1317:8 0.000268642
22 *1335:D *1317:95 0
23 *1353:D *1353:CK 1.37673e-05
24 *1434:D *1353:CK 2.90224e-06
25 *1434:D *1317:19 1.2752e-06
26 *1437:D *1437:CK 6.38328e-07
27 *1823:A2 *1421:CK 0
28 *1827:A2 *1317:19 4.14195e-05
29 *1864:A1 *1353:CK 0
30 *1903:B1 *1317:41 0
31 *1903:B1 *1317:45 1.91667e-07
32 *1903:B1 *1317:56 1.05408e-05
33 *1905:B1 *1317:19 0
34 *1906:A2 *1317:19 4.56104e-05
35 *1913:A2 *1317:41 0
36 *1913:A3 *1317:41 9.57492e-07
37 *2034:B1 *1421:CK 7.72792e-06
38 *2042:B2 *1317:56 9.41709e-05
39 *2071:B1 *1437:CK 0
40 *2079:B1 *1317:34 7.19036e-06
41 *2079:B1 *1317:41 2.39679e-06
42 *2079:B2 *1317:19 0
43 *37:12 *1357:CK 2.21757e-05
44 *146:12 *1330:CK 2.0121e-05
45 *146:12 *1418:CK 1.74934e-05
46 *146:12 *1317:41 0
47 *146:12 *1317:80 0
48 *146:12 *1317:95 6.52927e-05
49 *151:6 *1317:34 7.19036e-06
50 *151:6 *1317:41 0.000241895
51 *151:6 *1317:80 7.41707e-05
52 *151:6 *1317:95 0
53 *426:55 *1353:CK 0
54 *756:103 *1317:45 4.65467e-05
55 *756:103 *1317:56 7.91546e-05
56 *756:116 *1421:CK 3.63228e-05
57 *756:116 *1317:56 2.96901e-05
58 *756:122 *1421:CK 1.35725e-05
59 *756:122 *1437:CK 0
60 *811:91 *1353:CK 0.000347794
61 *811:91 *1317:19 1.66988e-05
62 *811:104 *1317:19 0.000243492
63 *811:115 *1317:19 0.00012712
64 *811:121 *1317:17 8.77996e-06
65 *811:143 *1317:19 3.81944e-05
66 *884:79 *1353:CK 4.73563e-05
67 *992:12 *1317:41 0
68 *1090:63 *1317:8 8.62472e-06
69 *1090:63 *1317:17 0
70 *1090:67 *1317:56 0.000167599
71 *1113:61 *1317:8 6.38784e-06
72 *1113:61 *1317:17 8.89022e-05
73 *1113:65 *1317:19 0
74 *1289:10 *1333:CK 4.24217e-05
75 *1303:607 *1421:CK 4.49246e-06
76 *1303:607 *1317:56 1.97846e-05
*RES
1 *2667:Z *1317:8 10.3571 
2 *1317:8 *2683:A 5 
3 *1317:8 *1317:17 30.25 
4 *1317:17 *1317:19 22.6429 
5 *1317:19 *1353:CK 48.3214 
6 *1317:19 *1317:34 5.75 
7 *1317:34 *1434:CK 5 
8 *1317:34 *1317:41 23.25 
9 *1317:41 *1317:45 11.3571 
10 *1317:45 *1418:CK 11.75 
11 *1317:45 *1317:56 28.75 
12 *1317:56 *1437:CK 18.75 
13 *1317:56 *1421:CK 17.4286 
14 *1317:41 *1317:80 12.25 
15 *1317:80 *1357:CK 25.1786 
16 *1317:80 *1317:95 25.4286 
17 *1317:95 *1335:CK 5.92857 
18 *1317:95 *1317:106 9.32143 
19 *1317:106 *1330:CK 20.25 
20 *1317:106 *1333:CK 22.4643 
*END

*D_NET *1318 0.00535948
*CONN
*I *1361:CK I *D DFF_X1
*I *1377:CK I *D DFF_X1
*I *2684:A I *D INV_X2
*I *1331:CK I *D DFF_X1
*I *1375:CK I *D DFF_X1
*I *1391:CK I *D DFF_X1
*I *1383:CK I *D DFF_X1
*I *1367:CK I *D DFF_X1
*I *1447:CK I *D DFF_X1
*I *1431:CK I *D DFF_X1
*I *2668:Z O *D CLKBUF_X3
*CAP
1 *1361:CK 0.000124885
2 *1377:CK 0.000119974
3 *2684:A 2.09221e-05
4 *1331:CK 0.000337844
5 *1375:CK 1.051e-05
6 *1391:CK 4.93955e-05
7 *1383:CK 0
8 *1367:CK 0
9 *1447:CK 3.38479e-05
10 *1431:CK 0.00019037
11 *2668:Z 0.000220517
12 *1318:106 0.000140896
13 *1318:104 0.000155347
14 *1318:75 0.000435957
15 *1318:64 0.000408736
16 *1318:51 0.000396904
17 *1318:18 0.000426273
18 *1318:12 0.000210126
19 *1318:8 0.000323293
20 *1361:CK *1319:10 1.01493e-05
21 data_out[7] *1331:CK 1.72429e-06
22 *1331:D *1331:CK 1.40196e-06
23 *1361:D *1361:CK 1.85131e-05
24 *1367:D *1318:18 7.2187e-06
25 *1375:D *1331:CK 3.98918e-06
26 *1447:D *1318:18 0
27 *1736:A2 *1318:75 0
28 *1747:A2 *1331:CK 4.11266e-05
29 *1747:A2 *1318:75 8.54767e-05
30 *1751:A2 *1431:CK 1.72084e-05
31 *1921:A *1318:64 1.56074e-06
32 *1924:B1 *1377:CK 0
33 *2050:A1 *1431:CK 6.93557e-05
34 *2194:A2 *1318:8 0
35 *2196:A1 *1361:CK 0
36 *2196:A2 *1377:CK 0
37 *2196:A2 *2684:A 0
38 *2201:A1 *1331:CK 5.19545e-06
39 *2201:A2 *1331:CK 0
40 *2212:A1 *1318:64 0
41 *2214:A1 *1318:64 6.06867e-06
42 *2232:A2 *1377:CK 1.52083e-06
43 *2233:A2 *1377:CK 0
44 *2235:A1 *1331:CK 0
45 *2235:A1 *1318:75 0
46 *2250:A2 *1375:CK 1.26998e-05
47 *2250:A2 *1318:75 0
48 *2668:A *1318:104 2.97287e-06
49 *41:12 *1361:CK 4.29713e-06
50 *111:12 *1431:CK 1.46241e-05
51 *147:8 *1447:CK 0
52 *438:37 *1361:CK 7.99278e-06
53 *438:37 *1318:8 0
54 *438:37 *1318:18 0
55 *438:37 *1318:104 3.51536e-06
56 *448:74 *1375:CK 0
57 *450:33 *1331:CK 4.24381e-05
58 *450:52 *1318:64 0
59 *598:312 *1361:CK 1.39839e-06
60 *598:314 *1361:CK 4.4488e-06
61 *598:323 *1361:CK 1.28548e-05
62 *598:323 *1318:104 1.05001e-05
63 *837:268 *1391:CK 0
64 *837:268 *1318:64 0
65 *851:10 *1431:CK 4.12796e-06
66 *851:10 *1318:12 1.72426e-05
67 *851:10 *1318:18 0.000186818
68 *851:10 *1318:51 0.000359111
69 *851:10 *1318:64 0.000124218
70 *853:59 *1431:CK 2.58456e-05
71 *853:59 *1447:CK 4.4061e-05
72 *853:74 *1431:CK 0.0002227
73 *1021:8 *1377:CK 0
74 *1102:48 *1431:CK 7.99278e-06
75 *1290:12 *1331:CK 5.96952e-05
76 *1292:171 *1431:CK 0
77 *1292:190 *1377:CK 0.00024374
78 *1292:190 *2684:A 5.54348e-05
79 *1298:200 *1331:CK 9.57492e-07
80 *1298:214 *1331:CK 1.3489e-05
*RES
1 *2668:Z *1318:8 28.75 
2 *1318:8 *1318:12 5.92857 
3 *1318:12 *1318:18 32.7857 
4 *1318:18 *1431:CK 48.3572 
5 *1318:18 *1447:CK 14.25 
6 *1318:12 *1367:CK 5 
7 *1318:8 *1318:51 19.25 
8 *1318:51 *1383:CK 10 
9 *1318:51 *1318:64 34.8214 
10 *1318:64 *1391:CK 9.75 
11 *1318:64 *1318:75 16.7857 
12 *1318:75 *1375:CK 11.25 
13 *1318:75 *1331:CK 48.4643 
14 *2668:Z *1318:104 8.25 
15 *1318:104 *1318:106 5 
16 *1318:106 *2684:A 12.9643 
17 *1318:106 *1377:CK 26.5357 
18 *1318:104 *1361:CK 18.7143 
*END

*D_NET *1319 0.00609107
*CONN
*I *1386:CK I *D DFF_X1
*I *1389:CK I *D DFF_X1
*I *1365:CK I *D DFF_X1
*I *1362:CK I *D DFF_X1
*I *1373:CK I *D DFF_X1
*I *1370:CK I *D DFF_X1
*I *1369:CK I *D DFF_X1
*I *1385:CK I *D DFF_X1
*I *1329:CK I *D DFF_X1
*I *1378:CK I *D DFF_X1
*I *1445:CK I *D DFF_X1
*I *1429:CK I *D DFF_X1
*I *1381:CK I *D DFF_X1
*I *2669:Z O *D CLKBUF_X3
*CAP
1 *1386:CK 7.97498e-05
2 *1389:CK 0
3 *1365:CK 0.000163531
4 *1362:CK 4.87118e-05
5 *1373:CK 0.000192495
6 *1370:CK 0
7 *1369:CK 0
8 *1385:CK 0.00018831
9 *1329:CK 4.27989e-05
10 *1378:CK 2.88545e-05
11 *1445:CK 0.000100264
12 *1429:CK 0.000121902
13 *1381:CK 0
14 *2669:Z 0.000180511
15 *1319:139 0.000373955
16 *1319:135 0.000324155
17 *1319:133 0.000318955
18 *1319:116 0.000358958
19 *1319:109 0.000309523
20 *1319:82 0.000274404
21 *1319:78 0.000122927
22 *1319:76 0.000483907
23 *1319:59 0.000289715
24 *1319:25 0.000419693
25 *1319:14 0.000233328
26 *1319:10 0.000292718
27 *1329:D *1319:78 2.56379e-05
28 *1361:CK *1319:10 1.01493e-05
29 *1362:D *1362:CK 6.38328e-07
30 *1365:D *1365:CK 0
31 *1369:D *1319:78 7.16188e-07
32 *1378:D *1378:CK 2.82826e-05
33 *1378:D *1319:59 2.14667e-06
34 *1381:D *1319:10 0
35 *1381:D *1319:59 0
36 *1389:D *1319:135 0
37 *1389:D *1319:139 0
38 *1445:D *1445:CK 3.08174e-05
39 *1822:B2 *1429:CK 5.98709e-05
40 *1889:A2 *1373:CK 3.36651e-05
41 *1892:A1 *1319:116 0
42 *1920:A2 *1385:CK 0
43 *1920:A2 *1319:82 0
44 *2052:A2 *1429:CK 1.87392e-05
45 *2053:B1 *1429:CK 2.15333e-05
46 *2053:B1 *1445:CK 5.0272e-06
47 *2053:B1 *1319:25 5.20238e-07
48 *2089:A1 *1319:25 6.92212e-05
49 *2089:A2 *1445:CK 3.83783e-05
50 *2090:A *1445:CK 1.52083e-06
51 *2090:B1 *1445:CK 5.42692e-07
52 *2090:B2 *1445:CK 2.59505e-05
53 *2184:A1 *1365:CK 4.79358e-06
54 *2185:A *1365:CK 6.64394e-06
55 *2204:B1 *1373:CK 3.84371e-05
56 *2210:A2 *1319:109 8.37609e-06
57 *2210:A2 *1319:116 2.16072e-07
58 *2222:B1 *1319:25 0
59 *2222:B2 *1319:59 1.82823e-05
60 *2229:A1 *1319:76 7.20039e-06
61 *2249:A *1373:CK 5.59765e-05
62 *41:12 *1319:10 4.70304e-06
63 *45:8 *1365:CK 4.79658e-06
64 *65:8 *1385:CK 0
65 *66:12 *1386:CK 1.01993e-05
66 *145:8 *1319:82 6.50581e-06
67 *378:74 *1429:CK 3.5108e-06
68 *378:78 *1429:CK 1.09501e-05
69 *378:104 *1429:CK 3.36572e-05
70 *378:104 *1445:CK 7.09666e-06
71 *378:104 *1319:25 2.36876e-06
72 *438:46 *1319:10 1.82015e-05
73 *438:61 *1362:CK 2.48889e-05
74 *438:61 *1365:CK 4.58901e-05
75 *450:63 *1329:CK 6.11168e-05
76 *450:63 *1319:78 0
77 *450:63 *1319:109 0
78 *461:25 *1378:CK 1.07746e-05
79 *461:25 *1319:59 4.7875e-06
80 *461:25 *1319:76 2.37378e-05
81 *461:27 *1319:59 3.1212e-06
82 *461:29 *1319:59 1.04925e-05
83 *473:36 *1329:CK 0
84 *473:46 *1386:CK 6.03616e-05
85 *473:46 *1319:135 8.6458e-05
86 *593:247 *1429:CK 6.44191e-06
87 *609:171 *1319:14 7.2638e-05
88 *609:171 *1319:25 1.87392e-05
89 *756:128 *1362:CK 0
90 *756:128 *1365:CK 0
91 *756:130 *1445:CK 2.08098e-06
92 *756:130 *1319:25 0
93 *756:196 *1386:CK 0
94 *756:196 *1319:135 0
95 *837:305 *1445:CK 1.9871e-06
96 *837:334 *1319:116 0
97 *837:334 *1319:133 0
98 *915:12 *1319:139 0
99 *1303:547 *1319:14 7.69267e-05
100 *1303:547 *1319:25 1.59858e-05
101 *1303:588 *1319:139 0
*RES
1 *2669:Z *1319:10 28.7857 
2 *1319:10 *1319:14 12.25 
3 *1319:14 *1381:CK 5 
4 *1319:14 *1319:25 28.7143 
5 *1319:25 *1429:CK 27.6786 
6 *1319:25 *1445:CK 32.4643 
7 *1319:10 *1319:59 9.41072 
8 *1319:59 *1378:CK 14.0893 
9 *1319:59 *1319:76 24.5893 
10 *1319:76 *1319:78 8.75 
11 *1319:78 *1319:82 9.32143 
12 *1319:82 *1329:CK 15.75 
13 *1319:82 *1385:CK 29.25 
14 *1319:78 *1369:CK 5 
15 *1319:76 *1319:109 21.75 
16 *1319:109 *1370:CK 5 
17 *1319:109 *1319:116 8.75 
18 *1319:116 *1373:CK 38.25 
19 *1319:116 *1319:133 12.25 
20 *1319:133 *1319:135 19.25 
21 *1319:135 *1319:139 21.5357 
22 *1319:139 *1362:CK 10.75 
23 *1319:139 *1365:CK 23.8929 
24 *1319:135 *1389:CK 10 
25 *1319:133 *1386:CK 21.1071 
*END

*D_NET *1305 0.00286584
*CONN
*I *1416:CK I *D DFF_X1
*I *1403:CK I *D DFF_X1
*I *1408:CK I *D DFF_X1
*I *1400:CK I *D DFF_X1
*I *1344:CK I *D DFF_X1
*I *2671:A I *D INV_X4
*I *1412:CK I *D DFF_X1
*I *2655:Z O *D CLKBUF_X3
*CAP
1 *1416:CK 5.88166e-05
2 *1403:CK 0.00021386
3 *1408:CK 0
4 *1400:CK 5.6457e-05
5 *1344:CK 0.000170036
6 *2671:A 0
7 *1412:CK 0.00013709
8 *2655:Z 0
9 *1305:77 0.000346302
10 *1305:48 0.00035991
11 *1305:42 0.000252883
12 *1305:27 0.000134547
13 *1305:25 0.000140312
14 *1305:4 0.000188697
15 *1400:D *1400:CK 6.38328e-07
16 *1403:D *1403:CK 2.75346e-06
17 *1408:D *1305:42 1.27666e-06
18 *1408:D *1305:48 6.38328e-07
19 *1412:D *1412:CK 5.54348e-05
20 *1416:D *1416:CK 5.54348e-05
21 *1846:B1 *1412:CK 3.17351e-05
22 *1846:B1 *1305:25 1.05232e-05
23 *1883:B1 *1403:CK 0
24 *1883:B1 *1305:25 1.67775e-05
25 *1883:B1 *1305:77 0.000102246
26 *2272:A *1305:42 7.46962e-06
27 *2272:B2 *1305:42 1.36786e-05
28 *2274:A1 *1412:CK 0
29 *2275:A1 *1305:42 2.70509e-05
30 *2275:A2 *1305:42 8.63814e-05
31 *2275:A2 *1305:77 4.32144e-07
32 *2275:B1 *1305:42 2.27248e-06
33 *2275:B1 *1305:77 0
34 *2275:B2 *1305:25 0
35 *2276:A1 *1305:42 3.99759e-06
36 *2364:A2 *1305:42 3.05895e-05
37 *2367:A1 *1344:CK 1.66988e-05
38 *2367:A1 *1400:CK 1.11753e-05
39 *2367:A1 *1305:48 5.11206e-05
40 *2655:A *1412:CK 3.65322e-06
41 *2655:A *1305:25 7.30645e-06
42 *598:37 *1412:CK 2.49523e-06
43 *598:44 *1412:CK 8.313e-06
44 *598:49 *1412:CK 8.78332e-06
45 *633:100 *1344:CK 2.65134e-05
46 *633:100 *1400:CK 0
47 *634:8 *1400:CK 7.19036e-06
48 *634:10 *1344:CK 0.000120306
49 *636:67 *1412:CK 2.52965e-06
50 *636:76 *1416:CK 6.48216e-07
51 *837:449 *1416:CK 6.48216e-07
52 *1062:38 *1305:42 0
53 *1062:38 *1305:48 0
54 *1064:21 *1403:CK 0
55 *1075:53 *1416:CK 1.97274e-05
56 *1077:8 *1416:CK 0
57 *1299:45 *1403:CK 0
58 *1299:45 *1416:CK 0
59 *1303:889 *1344:CK 2.07669e-05
60 *1303:1012 *1305:42 2.37122e-06
61 *1304:6 *1412:CK 3.90865e-05
62 *1304:8 *1412:CK 0
63 *1304:26 *1412:CK 8.26038e-06
*RES
1 *2655:Z *1305:4 5 
2 *1305:4 *1412:CK 31.8571 
3 *1305:4 *1305:25 6.25 
4 *1305:25 *1305:27 1.60714 
5 *1305:27 *2671:A 5 
6 *1305:27 *1305:42 25.3214 
7 *1305:42 *1305:48 20.3571 
8 *1305:48 *1344:CK 31.2857 
9 *1305:48 *1400:CK 16.25 
10 *1305:42 *1408:CK 5 
11 *1305:25 *1305:77 14.75 
12 *1305:77 *1403:CK 30.5714 
13 *1305:77 *1416:CK 17.1071 
*END

*D_NET *1306 0.00628233
*CONN
*I *2672:A I *D INV_X2
*I *1358:CK I *D DFF_X1
*I *1350:CK I *D DFF_X1
*I *1390:CK I *D DFF_X1
*I *1382:CK I *D DFF_X1
*I *1446:CK I *D DFF_X1
*I *1438:CK I *D DFF_X1
*I *1430:CK I *D DFF_X1
*I *1422:CK I *D DFF_X1
*I *1374:CK I *D DFF_X1
*I *1366:CK I *D DFF_X1
*I *2656:Z O *D CLKBUF_X3
*CAP
1 *2672:A 7.4358e-05
2 *1358:CK 0
3 *1350:CK 0
4 *1390:CK 0.000129361
5 *1382:CK 5.84838e-05
6 *1446:CK 0
7 *1438:CK 0.000256646
8 *1430:CK 0.000116465
9 *1422:CK 7.80141e-05
10 *1374:CK 1.61993e-05
11 *1366:CK 7.11491e-05
12 *2656:Z 0
13 *1306:135 0.000284954
14 *1306:102 0.000253937
15 *1306:58 0.000243246
16 *1306:56 0.000355702
17 *1306:50 0.000206254
18 *1306:46 0.000236746
19 *1306:35 9.567e-05
20 *1306:22 0.000350044
21 *1306:14 0.000354886
22 *1306:12 0.000464823
23 *1306:4 0.000113454
24 *1306:135 *1462:CK 0
25 *1366:D *1366:CK 1.14314e-05
26 *1374:D *1306:35 1.43544e-05
27 *1374:D *1306:46 1.94663e-05
28 *1374:D *1306:102 4.46863e-05
29 *1390:D *1390:CK 6.38328e-07
30 *1446:D *1438:CK 4.65264e-06
31 *1446:D *1306:56 3.26648e-06
32 *1446:D *1306:58 2.38077e-06
33 *1784:A2 *1306:135 7.18184e-06
34 *1786:B1 *1306:14 2.30024e-06
35 *1788:A1 *1306:135 3.01743e-05
36 *1790:A1 *1390:CK 7.98429e-05
37 *1790:A1 *1306:102 1.66988e-05
38 *1791:B2 *1382:CK 0
39 *1792:B2 *1366:CK 6.76378e-05
40 *1793:A1 *1382:CK 8.26038e-06
41 *1793:A1 *1306:102 4.97191e-06
42 *1794:A2 *1390:CK 2.99872e-05
43 *1794:B1 *1382:CK 8.43644e-06
44 *1794:B2 *1382:CK 7.72537e-06
45 *1794:B2 *1306:102 1.28272e-05
46 *1797:B1 *1430:CK 6.06867e-06
47 *1797:B1 *1438:CK 0
48 *1799:A *1422:CK 0.000139904
49 *1799:A *1306:58 6.3392e-05
50 *1800:A2 *1438:CK 2.16603e-05
51 *1801:B1 *1438:CK 1.41835e-05
52 *1801:B1 *1306:58 1.50871e-05
53 *2027:A2 *1306:22 0.000110233
54 *2032:B *1430:CK 5.98684e-05
55 *2032:S *1422:CK 0
56 *2069:S *1438:CK 0
57 *2103:A2 *1306:22 0
58 *2108:B *1306:14 1.08036e-06
59 *2178:A1 *1306:22 0
60 *2178:A2 *1306:22 0
61 *2183:A *1366:CK 5.7184e-05
62 *2183:B *1306:22 0
63 *2202:B *1390:CK 3.01743e-06
64 *2202:B *1306:102 0.000104618
65 *2220:A *1382:CK 0
66 *38:8 *1306:135 4.0847e-05
67 *142:12 *1306:135 8.59171e-06
68 *389:6 *1306:14 0
69 *389:6 *1306:22 0
70 *389:23 *1306:14 0
71 *389:23 *1306:135 1.94663e-05
72 *401:33 *2672:A 0
73 *401:33 *1306:12 0
74 *401:33 *1306:14 0
75 *424:25 *1306:135 4.94891e-06
76 *436:14 *1366:CK 2.73723e-05
77 *436:14 *1306:22 1.20477e-06
78 *436:14 *1306:35 3.83334e-05
79 *448:14 *1390:CK 4.45665e-05
80 *598:73 *2672:A 4.79202e-06
81 *598:82 *2672:A 3.83453e-06
82 *598:82 *1306:12 6.50581e-06
83 *598:82 *1306:135 0
84 *837:97 *1306:135 0
85 *837:362 *1382:CK 0
86 *837:388 *1306:102 8.02101e-05
87 *845:8 *1422:CK 0
88 *845:168 *1306:22 3.33445e-06
89 *845:181 *1306:14 2.24327e-06
90 *845:181 *1306:135 0.000310044
91 *884:29 *1306:135 0
92 *903:12 *1438:CK 4.24423e-05
93 *1088:12 *1422:CK 0
94 *1088:12 *1306:22 6.39118e-05
95 *1088:23 *1422:CK 0
96 *1088:23 *1306:58 0
97 *1100:12 *1306:50 0.000230162
98 *1100:12 *1306:56 1.96073e-05
99 *1111:14 *1390:CK 8.43034e-05
100 *1111:14 *1438:CK 0
101 *1111:27 *1438:CK 0
102 *1280:122 *1438:CK 9.91248e-06
103 *1280:137 *1438:CK 5.51369e-06
104 *1280:158 *1438:CK 3.61155e-06
105 *1297:92 *1306:14 2.45512e-05
106 *1297:116 *1390:CK 0
107 *1297:133 *1390:CK 2.74433e-05
108 *1297:141 *1438:CK 3.8766e-05
109 *1303:93 *1366:CK 4.381e-07
110 *1303:93 *1306:22 0.000132218
111 *1303:93 *1306:35 4.36705e-06
112 *1303:108 *1306:35 8.44185e-05
113 *1303:110 *1374:CK 1.83053e-06
114 *1303:110 *1306:50 0
115 *1303:110 *1306:56 0
116 *1303:136 *1374:CK 6.48216e-07
117 *1303:136 *1306:35 1.58752e-05
118 *1303:136 *1306:46 2.09871e-05
119 *1303:136 *1306:102 4.20792e-05
120 *1303:239 *1306:14 5.72399e-05
121 *1303:239 *1306:22 4.20994e-05
*RES
1 *2656:Z *1306:4 5 
2 *1306:4 *1306:12 15.2143 
3 *1306:12 *1306:14 16.75 
4 *1306:14 *1306:22 34.3929 
5 *1306:22 *1366:CK 20.9643 
6 *1306:22 *1306:35 11.6429 
7 *1306:35 *1374:CK 11.75 
8 *1306:35 *1306:46 2.96429 
9 *1306:46 *1306:50 26.75 
10 *1306:50 *1306:56 10.6786 
11 *1306:56 *1306:58 7.03572 
12 *1306:58 *1422:CK 21 
13 *1306:58 *1430:CK 22.8571 
14 *1306:56 *1438:CK 40.4286 
15 *1306:50 *1446:CK 5 
16 *1306:46 *1306:102 18.0357 
17 *1306:102 *1382:CK 11.25 
18 *1306:102 *1390:CK 33.1429 
19 *1306:14 *1350:CK 5 
20 *1306:12 *1306:135 49.8214 
21 *1306:135 *1358:CK 5 
22 *1306:4 *2672:A 12.8571 
*END

*D_NET *1307 0.00403027
*CONN
*I *1452:CK I *D DFF_X1
*I *1360:CK I *D DFF_X1
*I *1456:CK I *D DFF_X1
*I *1352:CK I *D DFF_X1
*I *1460:CK I *D DFF_X1
*I *2673:A I *D INV_X2
*I *1348:CK I *D DFF_X1
*I *1454:CK I *D DFF_X1
*I *1462:CK I *D DFF_X1
*I *2657:Z O *D CLKBUF_X3
*CAP
1 *1452:CK 0.000186622
2 *1360:CK 0.000176177
3 *1456:CK 1.70222e-05
4 *1352:CK 0.000193571
5 *1460:CK 0
6 *2673:A 0
7 *1348:CK 4.91651e-05
8 *1454:CK 0.000192915
9 *1462:CK 4.60159e-05
10 *2657:Z 7.13456e-05
11 *1307:84 0.000233318
12 *1307:80 0.000375042
13 *1307:74 0.00038118
14 *1307:63 9.41742e-05
15 *1307:30 0.0003439
16 *1307:28 0.000135082
17 *1307:26 0.000134348
18 *1360:D *1360:CK 2.90101e-06
19 *1452:D *1452:CK 4.29135e-05
20 *1460:D *1307:63 6.38328e-07
21 *1460:D *1307:74 6.38328e-07
22 *1462:D *1462:CK 2.75346e-06
23 *1785:A *1307:63 4.33476e-05
24 *1858:B1 *1452:CK 1.17466e-07
25 *1860:A *1452:CK 1.20695e-05
26 *1860:B2 *1452:CK 0.000484559
27 *1860:B2 *1307:74 1.72426e-05
28 *2113:B1 *1452:CK 3.82217e-05
29 *2130:A1 *1307:80 2.52965e-06
30 *2130:A2 *1307:80 2.23871e-06
31 *2150:B1 *1454:CK 0
32 *2150:B1 *1307:30 0
33 *2255:B1 *1360:CK 5.6849e-06
34 *2341:A1 *1352:CK 0
35 *2344:A1 *1352:CK 0
36 *2345:A1 *1307:80 2.52965e-06
37 *2347:A1 *1307:80 5.56073e-05
38 *2347:A2 *1352:CK 0
39 *2347:A2 *1360:CK 2.14728e-06
40 *2347:A2 *1307:84 1.0131e-06
41 *132:8 *1452:CK 3.52448e-06
42 *389:6 *1454:CK 0
43 *389:23 *1454:CK 0
44 *389:23 *1307:63 1.34605e-05
45 *389:25 *1307:63 8.98274e-07
46 *389:33 *1360:CK 1.28987e-05
47 *401:33 *1462:CK 1.74579e-05
48 *401:33 *1307:26 4.45934e-05
49 *401:33 *1307:63 0
50 *401:44 *1307:80 0
51 *401:59 *1307:80 0
52 *412:8 *1454:CK 3.87655e-05
53 *487:10 *1360:CK 4.68843e-05
54 *595:32 *1452:CK 3.25463e-05
55 *595:47 *1452:CK 9.20612e-05
56 *595:68 *1307:63 3.09411e-06
57 *595:68 *1307:74 5.62108e-06
58 *595:68 *1307:80 0.000271291
59 *609:20 *1360:CK 3.30471e-05
60 *884:44 *1452:CK 0
61 *1295:134 *1307:74 1.25215e-05
62 *1295:134 *1307:80 1.46756e-05
63 *1303:268 *1462:CK 1.34605e-05
64 *1303:268 *1307:26 1.83288e-05
65 *1303:268 *1307:63 0
66 *1303:279 *1452:CK 8.10241e-06
67 *1306:135 *1462:CK 0
*RES
1 *2657:Z *1462:CK 25.5357 
2 *2657:Z *1307:26 14.25 
3 *1307:26 *1307:28 2.96429 
4 *1307:28 *1307:30 11.1071 
5 *1307:30 *1454:CK 31.4286 
6 *1307:30 *1348:CK 14.75 
7 *1307:28 *2673:A 10 
8 *1307:26 *1307:63 13.3929 
9 *1307:63 *1460:CK 5 
10 *1307:63 *1307:74 7.67857 
11 *1307:74 *1307:80 35.75 
12 *1307:80 *1307:84 2.07143 
13 *1307:84 *1352:CK 29.2857 
14 *1307:84 *1456:CK 11.7857 
15 *1307:80 *1360:CK 31.1429 
16 *1307:74 *1452:CK 43 
*END

*D_NET *1308 0.00467052
*CONN
*I *2674:A I *D INV_X2
*I *1401:CK I *D DFF_X1
*I *1411:CK I *D DFF_X1
*I *1415:CK I *D DFF_X1
*I *1407:CK I *D DFF_X1
*I *1399:CK I *D DFF_X1
*I *1343:CK I *D DFF_X1
*I *1339:CK I *D DFF_X1
*I *1395:CK I *D DFF_X1
*I *2658:Z O *D CLKBUF_X3
*CAP
1 *2674:A 0
2 *1401:CK 0.000232218
3 *1411:CK 0.000298344
4 *1415:CK 6.58034e-06
5 *1407:CK 0
6 *1399:CK 8.81621e-05
7 *1343:CK 0
8 *1339:CK 0.000229458
9 *1395:CK 0.000129131
10 *2658:Z 0.000159251
11 *1308:106 0.000292162
12 *1308:39 0.000239954
13 *1308:37 0.000190086
14 *1308:24 0.000258357
15 *1308:20 0.000238775
16 *1308:14 0.000242334
17 *1308:12 0.000432427
18 *1401:CK *1309:8 8.30282e-06
19 *1401:CK *1309:19 0
20 *1401:CK *1309:25 0.000198376
21 *1308:106 *1309:8 1.18547e-06
22 *1343:D *1339:CK 6.38784e-06
23 *1399:D *1399:CK 0
24 *1407:D *1308:37 1.55619e-05
25 *1415:D *1411:CK 7.98539e-05
26 *1415:D *1308:14 9.14404e-05
27 *1415:D *1308:20 5.54348e-05
28 *1756:B1 *1308:37 3.29362e-05
29 *1762:B1 *1308:37 0.000209
30 *1762:B2 *1308:20 0
31 *1763:A1 *1411:CK 2.52965e-06
32 *1763:A1 *1308:14 0
33 *1763:A1 *1308:20 0
34 *1932:A1 *1401:CK 0
35 *1954:A1 *1339:CK 1.76665e-06
36 *1955:A1 *1339:CK 6.0887e-06
37 *1955:A2 *1339:CK 7.76413e-06
38 *1970:A1 *1399:CK 3.06504e-05
39 *1970:A1 *1308:39 7.72792e-06
40 *1970:A2 *1308:37 1.23973e-05
41 *1972:A1 *1399:CK 1.59582e-06
42 *1972:A2 *1399:CK 0
43 *2010:A1 *1411:CK 4.84832e-05
44 *2010:A1 *1308:12 9.62051e-07
45 *2010:A2 *1308:12 8.23621e-06
46 *2011:A2 *1308:12 6.38328e-07
47 *2023:A2 *1411:CK 5.50748e-05
48 *81:12 *1401:CK 8.59171e-06
49 *634:146 *1395:CK 0.000182986
50 *634:146 *1308:20 1.87369e-06
51 *634:146 *1308:24 2.9035e-05
52 *634:161 *1308:20 2.00206e-05
53 *636:87 *1411:CK 4.68293e-05
54 *636:98 *1401:CK 0
55 *636:98 *1411:CK 7.66905e-06
56 *636:98 *1308:106 0
57 *837:483 *1401:CK 0
58 *837:483 *1415:CK 6.48216e-07
59 *837:483 *1308:12 0
60 *837:483 *1308:106 0
61 *837:485 *1401:CK 0
62 *1040:51 *1339:CK 1.91498e-06
63 *1040:55 *1399:CK 0
64 *1042:6 *1339:CK 5.4104e-05
65 *1042:6 *1399:CK 9.05213e-05
66 *1042:6 *1308:39 1.80259e-05
67 *1042:19 *1339:CK 9.00848e-05
68 *1064:35 *1395:CK 0
69 *1064:35 *1308:20 0
70 *1064:35 *1308:24 0
71 *1077:36 *1411:CK 0
72 *1280:385 *1308:20 2.8602e-05
73 *1280:398 *1401:CK 0
74 *1298:33 *1308:39 0
75 *1298:48 *1308:37 0.000148381
76 *1303:908 *1308:37 2.15929e-05
*RES
1 *2658:Z *1308:12 20.4286 
2 *1308:12 *1308:14 5 
3 *1308:14 *1308:20 28.1429 
4 *1308:20 *1308:24 4.17857 
5 *1308:24 *1395:CK 22.25 
6 *1308:24 *1308:37 29.25 
7 *1308:37 *1308:39 1.75 
8 *1308:39 *1339:CK 34.2143 
9 *1308:39 *1343:CK 5 
10 *1308:37 *1399:CK 26.7143 
11 *1308:20 *1407:CK 5 
12 *1308:14 *1415:CK 10.75 
13 *1308:12 *1411:CK 46.3572 
14 *2658:Z *1308:106 11.4643 
15 *1308:106 *1401:CK 42.1072 
16 *1308:106 *2674:A 5 
*END

*D_NET *1309 0.00637608
*CONN
*I *1409:CK I *D DFF_X1
*I *1405:CK I *D DFF_X1
*I *1397:CK I *D DFF_X1
*I *1413:CK I *D DFF_X1
*I *1410:CK I *D DFF_X1
*I *1394:CK I *D DFF_X1
*I *1338:CK I *D DFF_X1
*I *1341:CK I *D DFF_X1
*I *1402:CK I *D DFF_X1
*I *1393:CK I *D DFF_X1
*I *1337:CK I *D DFF_X1
*I *2675:A I *D INV_X1
*I *2659:Z O *D CLKBUF_X3
*CAP
1 *1409:CK 7.93651e-05
2 *1405:CK 0.000184236
3 *1397:CK 0
4 *1413:CK 0.000199529
5 *1410:CK 5.75358e-05
6 *1394:CK 1.05547e-05
7 *1338:CK 0
8 *1341:CK 0.000117792
9 *1402:CK 0
10 *1393:CK 0
11 *1337:CK 0.000121636
12 *2675:A 0
13 *2659:Z 5.03031e-05
14 *1309:136 0.000306914
15 *1309:111 0.000358757
16 *1309:107 0.000277245
17 *1309:92 0.000409114
18 *1309:81 0.000228614
19 *1309:66 0.000277442
20 *1309:55 0.000313314
21 *1309:31 0.000287494
22 *1309:25 0.000530464
23 *1309:19 0.000362174
24 *1309:8 0.000163828
25 *1337:D *1337:CK 6.78878e-05
26 *1338:D *1309:81 9.62051e-07
27 *1341:D *1341:CK 1.91498e-06
28 *1393:D *1337:CK 7.72792e-06
29 *1394:D *1394:CK 5.52959e-06
30 *1394:D *1309:92 1.83288e-05
31 *1397:D *1309:107 2.23871e-06
32 *1401:CK *1309:8 8.30282e-06
33 *1401:CK *1309:19 0
34 *1401:CK *1309:25 0.000198376
35 *1409:D *1405:CK 0
36 *1817:A *1405:CK 0
37 *1818:A *1309:66 8.00929e-05
38 *1819:A2 *1410:CK 6.3924e-06
39 *1819:A2 *1413:CK 1.11357e-05
40 *1819:A2 *1309:111 3.66801e-05
41 *1897:B2 *1309:66 0.000173718
42 *1898:A2 *1309:107 0.000108203
43 *1932:A1 *1409:CK 0
44 *1932:A1 *1309:25 0
45 *1932:A1 *1309:136 0
46 *1934:A *1309:31 0
47 *1934:B2 *1337:CK 0.000107955
48 *1936:B1 *1337:CK 5.54758e-05
49 *1957:A2 *1341:CK 1.65484e-05
50 *1958:B2 *1341:CK 0
51 *1965:A1 *1341:CK 0
52 *1965:A1 *1309:66 0
53 *1966:A *1309:66 0
54 *1974:A1 *1309:107 0
55 *1974:A2 *1309:107 1.72426e-05
56 *1974:A2 *1309:111 2.41394e-05
57 *1981:A2 *1309:92 0
58 *1981:A2 *1309:107 9.52105e-05
59 *1982:B1 *1309:92 2.86475e-06
60 *1982:B2 *1309:92 0
61 *1993:A2 *1405:CK 7.78265e-06
62 *1994:B1 *1405:CK 1.27093e-05
63 *2001:A2 *1309:55 0
64 *2002:A *1309:55 1.27666e-06
65 *2002:B2 *1309:55 7.72537e-06
66 *2025:A2 *1409:CK 0
67 *21:19 *1341:CK 5.96884e-05
68 *21:19 *1309:66 5.04171e-05
69 *89:12 *1409:CK 3.49085e-06
70 *634:170 *1309:55 8.63438e-05
71 *634:170 *1309:66 1.61774e-05
72 *634:176 *1309:107 0
73 *636:98 *1309:19 0
74 *636:107 *1405:CK 0.000194016
75 *636:107 *1309:19 0
76 *756:12 *1337:CK 0
77 *756:20 *1309:55 1.53342e-05
78 *756:20 *1309:66 7.96507e-06
79 *756:41 *1309:66 9.05554e-06
80 *811:34 *1309:81 7.72792e-06
81 *811:34 *1309:92 0.000204584
82 *837:485 *1309:25 0
83 *837:491 *1309:25 0
84 *837:491 *1309:31 0
85 *845:87 *1337:CK 3.09411e-06
86 *845:87 *1309:31 1.09322e-05
87 *845:104 *1309:31 0
88 *1042:59 *1341:CK 0
89 *1064:41 *1309:55 0
90 *1077:76 *1413:CK 0
91 *1292:10 *1337:CK 8.06304e-05
92 *1303:921 *1337:CK 0.00012041
93 *1303:925 *1309:31 0
94 *1303:929 *1309:66 9.22959e-05
95 *1308:106 *1309:8 1.18547e-06
*RES
1 *2659:Z *1309:8 10.8571 
2 *1309:8 *2675:A 5 
3 *1309:8 *1309:19 16.1786 
4 *1309:19 *1309:25 24.3214 
5 *1309:25 *1309:31 21 
6 *1309:31 *1337:CK 36.4286 
7 *1309:31 *1393:CK 5 
8 *1309:25 *1309:55 24.75 
9 *1309:55 *1402:CK 5 
10 *1309:55 *1309:66 29.8572 
11 *1309:66 *1341:CK 24.5714 
12 *1309:66 *1309:81 5.75 
13 *1309:81 *1338:CK 5 
14 *1309:81 *1309:92 32.7143 
15 *1309:92 *1394:CK 11.25 
16 *1309:92 *1309:107 27.5357 
17 *1309:107 *1309:111 18.8214 
18 *1309:111 *1410:CK 15.75 
19 *1309:111 *1413:CK 31.2857 
20 *1309:107 *1397:CK 5 
21 *1309:19 *1309:136 4.32143 
22 *1309:136 *1405:CK 43.4643 
23 *1309:136 *1409:CK 18.3929 
*END

*D_NET *1310 0.00331271
*CONN
*I *1457:CK I *D DFF_X1
*I *2676:A I *D INV_X4
*I *1451:CK I *D DFF_X1
*I *1463:CK I *D DFF_X1
*I *1464:CK I *D DFF_X1
*I *1351:CK I *D DFF_X1
*I *1459:CK I *D DFF_X1
*I *1347:CK I *D DFF_X1
*I *2660:Z O *D CLKBUF_X3
*CAP
1 *1457:CK 0.000182748
2 *2676:A 0
3 *1451:CK 0.000190533
4 *1463:CK 5.49978e-05
5 *1464:CK 0.000127943
6 *1351:CK 9.06829e-05
7 *1459:CK 1.61954e-05
8 *1347:CK 7.55056e-05
9 *2660:Z 0.000239451
10 *1310:44 0.000236573
11 *1310:42 0.000211884
12 *1310:38 0.000359662
13 *1310:25 8.27259e-05
14 *1310:12 0.000130636
15 *1310:8 7.54941e-05
16 *1457:CK *1311:8 0
17 *1451:D *1451:CK 5.38515e-05
18 *1457:D *1457:CK 0
19 *1459:D *1459:CK 6.38328e-07
20 *1777:A *1351:CK 1.52083e-06
21 *1777:A *1463:CK 5.64879e-06
22 *1777:A *1310:44 2.00032e-05
23 *1777:B1 *1464:CK 2.50753e-05
24 *1777:B2 *1351:CK 2.55596e-05
25 *1865:B1 *1451:CK 4.96933e-05
26 *1865:B2 *1347:CK 4.0456e-06
27 *1865:B2 *1310:25 1.3453e-05
28 *1865:B2 *1310:38 4.17886e-06
29 *1867:A2 *1451:CK 0
30 *1868:B2 *1451:CK 1.92516e-05
31 *2114:A2 *1451:CK 2.99163e-05
32 *2116:A1 *1451:CK 5.07067e-06
33 *2116:A2 *1451:CK 4.43868e-06
34 *2132:A1 *1451:CK 1.52992e-05
35 *2132:A1 *1310:42 8.18007e-05
36 *2134:A2 *1310:25 0
37 *2134:A2 *1310:38 0
38 *2137:A1 *1457:CK 2.52965e-06
39 *2137:A2 *1457:CK 5.07562e-06
40 *2138:A2 *1457:CK 6.11168e-05
41 *2139:A1 *1457:CK 1.86478e-05
42 *2143:A2 *1351:CK 4.2108e-05
43 *2152:A2 *1347:CK 1.84597e-05
44 *2344:A1 *1464:CK 2.07643e-05
45 *2660:A *1310:8 5.82683e-06
46 *389:37 *1451:CK 3.76648e-05
47 *401:59 *1464:CK 0.000155996
48 *401:61 *1464:CK 4.59295e-05
49 *401:61 *1310:42 3.50594e-05
50 *401:68 *1459:CK 2.36158e-05
51 *401:68 *1310:8 0
52 *401:68 *1310:12 0
53 *403:14 *1463:CK 1.32348e-05
54 *403:50 *1457:CK 0
55 *595:76 *1310:42 1.26998e-05
56 *595:89 *1451:CK 1.67407e-05
57 *595:89 *1310:42 0.00023282
58 *866:8 *1351:CK 0
59 *866:8 *1463:CK 0
60 *880:16 *1351:CK 2.84765e-06
61 *880:16 *1463:CK 2.12898e-05
62 *880:16 *1464:CK 7.10056e-06
63 *880:16 *1310:44 1.08321e-05
64 *1294:82 *1347:CK 2.82831e-05
65 *1294:82 *1351:CK 1.32323e-05
66 *1294:97 *1310:38 5.94174e-07
67 *1294:108 *1451:CK 3.99051e-05
68 *1294:108 *1310:38 3.28571e-07
69 *1303:348 *1463:CK 5.52959e-06
*RES
1 *2660:Z *1310:8 10.8571 
2 *1310:8 *1310:12 7.75 
3 *1310:12 *1347:CK 19.7857 
4 *1310:12 *1310:25 4.32143 
5 *1310:25 *1459:CK 12.25 
6 *1310:25 *1310:38 7.96429 
7 *1310:38 *1310:42 28.25 
8 *1310:42 *1310:44 2.96429 
9 *1310:44 *1351:CK 22.3571 
10 *1310:44 *1464:CK 29.25 
11 *1310:42 *1463:CK 16.9286 
12 *1310:38 *1451:CK 42.0357 
13 *1310:8 *2676:A 5 
14 *2660:Z *1457:CK 30.3572 
*END

*D_NET *1311 0.00396693
*CONN
*I *1354:CK I *D DFF_X1
*I *1449:CK I *D DFF_X1
*I *1450:CK I *D DFF_X1
*I *1453:CK I *D DFF_X1
*I *1349:CK I *D DFF_X1
*I *1346:CK I *D DFF_X1
*I *1461:CK I *D DFF_X1
*I *1458:CK I *D DFF_X1
*I *1345:CK I *D DFF_X1
*I *2677:A I *D INV_X2
*I *2661:Z O *D CLKBUF_X3
*CAP
1 *1354:CK 0.000138269
2 *1449:CK 0.000152238
3 *1450:CK 0.000115117
4 *1453:CK 9.62894e-05
5 *1349:CK 2.12788e-05
6 *1346:CK 9.36008e-05
7 *1461:CK 0
8 *1458:CK 0
9 *1345:CK 5.08411e-05
10 *2677:A 0
11 *2661:Z 5.70141e-05
12 *1311:118 0.000349448
13 *1311:90 0.000261468
14 *1311:64 0.000157253
15 *1311:62 0.000249904
16 *1311:53 0.000242138
17 *1311:47 0.000247121
18 *1311:32 0.00035603
19 *1311:17 0.000406578
20 *1311:8 0.00016023
21 *1354:D *1354:CK 2.16578e-05
22 *1449:D *1449:CK 6.38328e-07
23 *1450:D *1450:CK 5.37537e-05
24 *1457:D *1311:17 0
25 *1457:D *1311:32 2.39679e-06
26 *1457:CK *1311:8 0
27 *1458:D *1311:32 6.38328e-07
28 *1458:D *1311:47 4.14913e-06
29 *1830:B2 *1453:CK 5.19296e-05
30 *1830:B2 *1311:90 1.94394e-05
31 *1907:A *1354:CK 1.48912e-05
32 *1907:A *1311:118 6.32202e-06
33 *1908:A2 *1450:CK 0
34 *1908:A2 *1311:90 0
35 *1909:B2 *1346:CK 4.4097e-06
36 *1909:B2 *1311:62 0
37 *2118:B1 *1349:CK 2.84174e-05
38 *2118:B1 *1450:CK 3.51536e-06
39 *2118:B1 *1453:CK 3.13376e-06
40 *2118:B1 *1311:62 0
41 *2128:A1 *1311:53 7.19036e-06
42 *2128:A2 *1311:53 4.32144e-07
43 *2129:A *1311:53 3.19164e-07
44 *2129:B1 *1311:53 0
45 *2129:B1 *1311:62 5.64909e-05
46 *2139:A1 *1311:8 0
47 *2139:A1 *1311:17 0
48 *2146:A1 *1346:CK 5.38865e-06
49 *2146:A2 *1346:CK 6.15556e-05
50 *2146:A2 *1311:64 4.14079e-05
51 *2146:A2 *1311:90 1.52083e-06
52 *2147:B1 *1346:CK 3.37896e-05
53 *2154:A2 *1346:CK 6.15312e-06
54 *25:8 *1311:32 0
55 *130:6 *1450:CK 0
56 *138:12 *1311:47 0
57 *403:59 *1311:32 0
58 *403:59 *1311:47 0
59 *403:59 *1311:53 0
60 *593:126 *1449:CK 8.08415e-05
61 *595:107 *1311:53 7.77045e-05
62 *595:107 *1311:62 6.3924e-06
63 *609:56 *1354:CK 4.91538e-05
64 *756:73 *1311:64 0
65 *756:84 *1311:64 0
66 *756:84 *1311:90 0
67 *811:78 *1354:CK 0
68 *922:18 *1311:47 0.000117755
69 *922:22 *1311:47 1.46625e-05
70 *922:22 *1311:118 1.52083e-06
71 *922:24 *1354:CK 1.06648e-05
72 *922:24 *1311:118 2.3879e-05
73 *1303:769 *1449:CK 0
74 *1303:786 *1311:62 0
*RES
1 *2661:Z *1311:8 10.8571 
2 *1311:8 *2677:A 5 
3 *1311:8 *1311:17 15.25 
4 *1311:17 *1345:CK 15.6786 
5 *1311:17 *1311:32 30.25 
6 *1311:32 *1458:CK 5 
7 *1311:32 *1311:47 19.3571 
8 *1311:47 *1311:53 15.0357 
9 *1311:53 *1461:CK 5 
10 *1311:53 *1311:62 22.75 
11 *1311:62 *1311:64 5.67857 
12 *1311:64 *1346:CK 23 
13 *1311:64 *1349:CK 12.75 
14 *1311:62 *1311:90 10.7143 
15 *1311:90 *1453:CK 27.4643 
16 *1311:90 *1450:CK 27.1071 
17 *1311:47 *1311:118 7.03572 
18 *1311:118 *1449:CK 28.25 
19 *1311:118 *1354:CK 26.75 
*END

*D_NET *1312 0.00542206
*CONN
*I *1432:CK I *D DFF_X1
*I *1388:CK I *D DFF_X1
*I *1372:CK I *D DFF_X1
*I *1420:CK I *D DFF_X1
*I *1428:CK I *D DFF_X1
*I *1444:CK I *D DFF_X1
*I *1364:CK I *D DFF_X1
*I *1380:CK I *D DFF_X1
*I *1436:CK I *D DFF_X1
*I *1435:CK I *D DFF_X1
*I *1356:CK I *D DFF_X1
*I *2678:A I *D INV_X1
*I *2662:Z O *D CLKBUF_X3
*CAP
1 *1432:CK 5.05853e-05
2 *1388:CK 0
3 *1372:CK 8.71307e-06
4 *1420:CK 4.11252e-05
5 *1428:CK 0.00023942
6 *1444:CK 8.33971e-06
7 *1364:CK 0
8 *1380:CK 0.00023892
9 *1436:CK 0.000183078
10 *1435:CK 8.71307e-06
11 *1356:CK 0.000280086
12 *2678:A 5.63651e-05
13 *2662:Z 0.000139454
14 *1312:85 0.000315955
15 *1312:70 0.000355681
16 *1312:68 0.00026518
17 *1312:62 0.000448572
18 *1312:60 0.000247915
19 *1312:56 0.000268641
20 *1312:46 0.000358605
21 *1312:37 0.000309665
22 *1312:33 0.000107836
23 *1312:22 0.00037706
24 *1364:D *1380:CK 1.26998e-05
25 *1372:D *1312:56 8.43215e-07
26 *1372:D *1312:60 1.51469e-05
27 *1388:D *1312:46 1.60038e-06
28 *1420:D *1312:60 8.43215e-07
29 *1428:D *1428:CK 1.58933e-05
30 *1435:D *1312:37 0
31 *1435:D *1312:46 0
32 *1444:D *1312:68 0.000115373
33 *1444:D *1312:70 5.62244e-05
34 *1839:B1 *1380:CK 0
35 *1849:A *1428:CK 0
36 *1850:B2 *1428:CK 5.23787e-05
37 *1852:A1 *1444:CK 6.48216e-07
38 *1853:B1 *1380:CK 0
39 *1853:B1 *1312:85 4.20026e-05
40 *1854:B2 *1312:70 0
41 *1859:A2 *1356:CK 1.15782e-06
42 *2035:A1 *1420:CK 0
43 *2035:A1 *1312:62 0
44 *2054:A1 *1428:CK 5.43035e-06
45 *2055:A *1428:CK 2.23871e-06
46 *2055:B2 *1428:CK 7.72537e-06
47 *2072:A1 *1436:CK 0
48 *2072:A1 *1312:85 8.56032e-06
49 *2076:A1 *1356:CK 6.56271e-05
50 *2076:A1 *1432:CK 2.59296e-05
51 *2076:A1 *1312:33 5.39412e-06
52 *2206:A *1312:60 9.57492e-07
53 *2206:B1 *1312:60 9.01846e-07
54 *2206:B2 *1312:60 7.19036e-06
55 *2244:B1 *1312:46 9.62051e-07
56 *2266:A *2678:A 0
57 *2356:A2 *1312:22 0
58 *2662:A *2678:A 1.82661e-06
59 *36:8 *1356:CK 1.98256e-05
60 *68:12 *1312:46 1.39607e-05
61 *148:10 *1356:CK 0
62 *376:40 *1312:68 0
63 *376:51 *1312:68 0
64 *376:55 *1312:46 0
65 *376:55 *1312:56 0
66 *459:42 *1312:56 0.000120658
67 *598:111 *2678:A 1.11334e-05
68 *837:125 *1312:22 0
69 *837:133 *1312:68 0
70 *948:8 *1356:CK 6.16527e-05
71 *954:10 *1444:CK 0
72 *1100:49 *1312:46 5.45325e-05
73 *1100:64 *1312:46 4.13413e-05
74 *1100:77 *1312:22 1.11799e-05
75 *1100:77 *1312:37 1.85225e-05
76 *1100:77 *1312:46 2.47947e-05
77 *1111:57 *1380:CK 6.44929e-05
78 *1111:98 *1356:CK 0
79 *1113:12 *1356:CK 1.46266e-05
80 *1295:170 *1380:CK 9.62051e-07
81 *1295:172 *1380:CK 2.42929e-05
82 *1295:182 *1312:85 9.99269e-06
83 *1295:199 *1436:CK 0
84 *1295:199 *1312:68 0
85 *1295:199 *1312:70 0
86 *1295:212 *1312:62 0
87 *1295:212 *1312:68 0
88 *1303:196 *1428:CK 0
89 *1303:196 *1312:60 0.000172622
*RES
1 *2662:Z *2678:A 15.8571 
2 *2662:Z *1312:22 18.75 
3 *1312:22 *1356:CK 46.2143 
4 *1312:22 *1312:33 1.60714 
5 *1312:33 *1312:37 9.75 
6 *1312:37 *1435:CK 5.92857 
7 *1312:37 *1312:46 30.25 
8 *1312:46 *1312:56 22.3571 
9 *1312:56 *1312:60 25.25 
10 *1312:60 *1312:62 4.32143 
11 *1312:62 *1312:68 18.8929 
12 *1312:68 *1312:70 10.4286 
13 *1312:70 *1436:CK 27.7857 
14 *1312:70 *1312:85 14.75 
15 *1312:85 *1380:CK 31.1786 
16 *1312:85 *1364:CK 5 
17 *1312:68 *1444:CK 10.75 
18 *1312:62 *1428:CK 36.3572 
19 *1312:60 *1420:CK 14.3214 
20 *1312:56 *1372:CK 5.92857 
21 *1312:46 *1388:CK 5 
22 *1312:33 *1432:CK 16.3571 
*END

*D_NET *1313 0.00285586
*CONN
*I *1359:CK I *D DFF_X1
*I *1417:CK I *D DFF_X1
*I *1433:CK I *D DFF_X1
*I *1424:CK I *D DFF_X1
*I *1441:CK I *D DFF_X1
*I *2679:A I *D INV_X4
*I *1440:CK I *D DFF_X1
*I *2663:Z O *D CLKBUF_X3
*CAP
1 *1359:CK 0.000173877
2 *1417:CK 0
3 *1433:CK 4.44329e-05
4 *1424:CK 0.000115296
5 *1441:CK 0
6 *2679:A 0
7 *1440:CK 6.54743e-05
8 *2663:Z 0
9 *1313:71 0.00036318
10 *1313:56 0.000375638
11 *1313:37 0.000270499
12 *1313:28 0.00011427
13 *1313:8 0.000146711
14 *1313:4 0.000182206
15 *1424:D *1424:CK 2.64543e-05
16 *1433:D *1433:CK 2.88181e-05
17 *1441:D *1313:37 4.06582e-06
18 *1441:D *1313:56 1.26019e-05
19 *1927:B2 *1313:56 1.78847e-05
20 *2065:A2 *1359:CK 1.08606e-05
21 *2065:A2 *1313:71 4.80724e-05
22 *2075:A1 *1440:CK 3.61378e-07
23 *2080:A1 *1313:37 3.23723e-07
24 *2080:A1 *1313:56 3.66886e-06
25 *2081:A1 *1313:56 1.04875e-05
26 *2081:A2 *1313:56 6.66374e-06
27 *2081:A2 *1313:71 2.82896e-05
28 *2082:A2 *1433:CK 9.73377e-06
29 *2082:A2 *1313:56 5.10087e-06
30 *2099:A2 *1424:CK 0
31 *2101:A1 *1313:37 0
32 *2352:A2 *1440:CK 0
33 *121:12 *1424:CK 0
34 *121:12 *1313:56 1.09663e-05
35 *593:51 *1359:CK 0.00042112
36 *593:53 *1359:CK 1.66822e-05
37 *609:97 *1424:CK 0.000150402
38 *609:97 *1313:56 1.55959e-05
39 *986:8 *1359:CK 9.24525e-05
40 *1100:88 *1424:CK 8.31383e-06
41 *1113:40 *1313:56 1.9825e-05
42 *1294:144 *1440:CK 4.9788e-05
43 *1294:144 *1313:8 0
44 *1294:144 *1313:28 0
45 *1303:400 *1313:56 5.73959e-06
*RES
1 *2663:Z *1313:4 5 
2 *1313:4 *1313:8 8.35715 
3 *1313:8 *1440:CK 22.7143 
4 *1313:8 *2679:A 5 
5 *1313:4 *1313:28 9.25 
6 *1313:28 *1441:CK 5 
7 *1313:28 *1313:37 1.67857 
8 *1313:37 *1424:CK 31.7143 
9 *1313:37 *1313:56 23.2857 
10 *1313:56 *1433:CK 15.7143 
11 *1313:56 *1313:71 27.75 
12 *1313:71 *1417:CK 5 
13 *1313:71 *1359:CK 44.0714 
*END

*D_NET *842 0.00143966
*CONN
*P count[0] O
*I *1739:Z O *D BUF_X1
*CAP
1 count[0] 0.000685125
2 *1739:Z 0.000685125
3 count[0] *843:17 6.02325e-05
4 count[1] count[0] 9.18086e-06
*RES
1 *1739:Z count[0] 47.9264 
*END

*D_NET *841 0.00145469
*CONN
*P count[1] O
*I *1738:Z O *D BUF_X1
*CAP
1 count[1] 1.51081e-05
2 *1738:Z 0
3 *841:6 0.000661083
4 *841:4 0.000645975
5 count[1] count[0] 9.18086e-06
6 count[1] *843:17 1.7805e-05
7 *841:6 *1740:A 7.61556e-05
8 *841:6 *1300:10 1.3414e-05
9 *841:6 *1303:16 1.59673e-05
*RES
1 *1738:Z *841:4 5 
2 *841:4 *841:6 68.75 
3 *841:6 count[1] 17.2307 
*END

*D_NET *840 0.00146621
*CONN
*P count[2] O
*I *1737:Z O *D BUF_X1
*CAP
1 count[2] 2.75369e-05
2 *1737:Z 0
3 *840:6 0.000733103
4 *840:4 0.000705566
5 *840:6 *1735:A 0
6 *840:6 *1282:34 0
7 *840:6 *1282:45 0
8 count[3] count[2] 0
9 *838:6 *840:6 0
*RES
1 *1737:Z *840:4 5 
2 *840:4 *840:6 69.75 
3 *840:6 count[2] 18.2036 
*END

*D_NET *838 0.00103758
*CONN
*P count[3] O
*I *1735:Z O *D BUF_X1
*CAP
1 count[3] 1.86302e-05
2 *1735:Z 0
3 *838:6 0.000518789
4 *838:4 0.000500159
5 count[3] count[2] 0
6 *838:6 *840:6 0
*RES
1 *1735:Z *838:4 5 
2 *838:4 *838:6 49.75 
3 *838:6 count[3] 17.2393 
*END

*D_NET *836 0.000812135
*CONN
*P data_out[0] O
*I *1733:Z O *D BUF_X1
*CAP
1 data_out[0] 1.18737e-05
2 *1733:Z 0.000394194
3 *836:12 0.000406068
*RES
1 *1733:Z *836:12 47.92 
2 *836:12 data_out[0] 3.435 
*END

*D_NET *832 0.000481837
*CONN
*P data_out[1] O
*I *1725:Z O *D BUF_X1
*CAP
1 data_out[1] 0.000212873
2 *1725:Z 0.000212873
3 data_out[6] data_out[1] 5.60904e-05
*RES
1 *1725:Z data_out[1] 32.2911 
*END

*D_NET *812 0.000310451
*CONN
*P data_out[2] O
*I *1702:Z O *D BUF_X1
*CAP
1 data_out[2] 0.000155226
2 *1702:Z 0.000155226
*RES
1 *1702:Z data_out[2] 27.7993 
*END

*D_NET *796 0.00125736
*CONN
*P data_out[3] O
*I *1685:Z O *D BUF_X1
*CAP
1 data_out[3] 4.88471e-05
2 *1685:Z 0
3 *796:6 0.000628679
4 *796:4 0.000579832
5 *796:6 *1506:A 0
6 *796:6 *1574:A 0
7 *691:12 *796:6 0
*RES
1 *1685:Z *796:4 5 
2 *796:4 *796:6 57.25 
3 *796:6 data_out[3] 17.6136 
*END

*D_NET *780 0.000474858
*CONN
*P data_out[4] O
*I *1667:Z O *D BUF_X1
*CAP
1 data_out[4] 0.000180234
2 *1667:Z 0.000180234
3 data_out[6] data_out[4] 0.000114389
*RES
1 *1667:Z data_out[4] 30.2911 
*END

*D_NET *757 0.000134128
*CONN
*P data_out[5] O
*I *1642:Z O *D BUF_X1
*CAP
1 data_out[5] 6.70639e-05
2 *1642:Z 6.70639e-05
3 data_out[5] *1685:A 0
4 result[6] data_out[5] 0
5 result[7] data_out[5] 0
*RES
1 *1642:Z data_out[5] 24.6493 
*END

*D_NET *734 0.000503847
*CONN
*P data_out[6] O
*I *1619:Z O *D BUF_X1
*CAP
1 data_out[6] 0.000166684
2 *1619:Z 0.000166684
3 data_out[6] data_out[1] 5.60904e-05
4 data_out[6] data_out[4] 0.000114389
*RES
1 *1619:Z data_out[6] 31.5411 
*END

*D_NET *718 0.000280257
*CONN
*P data_out[7] O
*I *1602:Z O *D BUF_X1
*CAP
1 data_out[7] 0.000139267
2 *1602:Z 0.000139267
3 data_out[7] *1331:CK 1.72429e-06
*RES
1 *1602:Z data_out[7] 32.685 
*END

*D_NET *1 0.000828822
*CONN
*I *2414:A I *D HA_X1
*I *1694:A2 I *D NAND2_X1
*I *1720:A I *D INV_X1
*I *2323:Z O *D BUF_X1
*CAP
1 *2414:A 6.51904e-05
2 *1694:A2 1.85091e-05
3 *1720:A 8.00273e-05
4 *2323:Z 8.12118e-05
5 *1:19 0.000204585
6 *1:8 0.000282124
7 *1694:A2 *1694:A1 1.21774e-06
8 *1694:A2 *222:22 4.15825e-06
9 *1694:A2 *644:92 2.82896e-05
10 *1720:A *1760:A 0
11 *1720:A *677:71 0
12 *2414:A *222:22 4.65522e-06
13 *2414:A *644:92 3.34026e-05
14 *2414:A *652:88 2.54506e-05
15 *1:8 *637:77 0
16 *1:8 *677:71 0
17 *1:19 *677:73 0
*RES
1 *2323:Z *1:8 12.8571 
2 *1:8 *1720:A 12.75 
3 *1:8 *1:19 16.7857 
4 *1:19 *1694:A2 12.75 
5 *1:19 *2414:A 18.6786 
*END

*D_NET *10 0.00114043
*CONN
*I *1482:A I *D INV_X1
*I *1690:B2 I *D AOI21_X1
*I *2385:B I *D FA_X1
*I *2420:B I *D HA_X1
*I *1758:Z O *D BUF_X1
*CAP
1 *1482:A 2.19262e-05
2 *1690:B2 4.99591e-06
3 *2385:B 0.000237392
4 *2420:B 0
5 *1758:Z 7.25827e-05
6 *10:43 9.9218e-05
7 *10:8 0.000237678
8 *1482:A *1690:A 2.39679e-06
9 *1482:A *2385:A 5.11191e-06
10 *1482:A *652:88 3.02372e-05
11 *1482:A *652:97 2.94435e-05
12 *1482:A *803:22 1.72405e-05
13 *1690:B2 *1690:A 2.16072e-07
14 *1690:B2 *222:22 7.72792e-06
15 *2385:B *1691:A2 2.60367e-05
16 *2385:B *1695:A1 2.16668e-07
17 *2385:B *1695:A2 3.12121e-06
18 *2385:B *1695:A4 9.02464e-06
19 *2385:B *1698:B1 0
20 *2385:B *222:22 1.58895e-05
21 *2385:B *228:8 0
22 *2385:B *637:85 0.000132836
23 *2385:B *644:92 2.32283e-06
24 *2385:B *644:98 1.68643e-06
25 *10:43 *1695:A3 6.56533e-06
26 *10:43 *2385:A 3.35725e-05
27 *10:43 *222:22 0.000103929
28 *2:10 *2385:B 9.53714e-06
29 *2:10 *10:8 2.2331e-05
30 *3:30 *1482:A 7.19036e-06
31 *3:30 *10:43 0
*RES
1 *1758:Z *10:8 19.0714 
2 *10:8 *2420:B 10 
3 *10:8 *2385:B 30.6072 
4 *2385:B *10:43 16.1786 
5 *10:43 *1690:B2 5.75 
6 *10:43 *1482:A 18.7143 
*END

*D_NET *11 0.000856414
*CONN
*I *2417:B I *D HA_X1
*I *1481:A I *D INV_X2
*I *1757:Z O *D BUF_X1
*CAP
1 *2417:B 0
2 *1481:A 0.000145487
3 *1757:Z 0.000152186
4 *11:12 0.000297673
5 *1481:A *1695:A3 4.36941e-06
6 *1481:A *1695:A4 5.89574e-05
7 *1481:A *1698:B1 4.80812e-06
8 *1481:A *1700:A1 8.63465e-06
9 *1481:A *222:22 2.3222e-05
10 *1481:A *228:8 2.45782e-05
11 *1481:A *637:77 2.43548e-06
12 *1481:A *644:98 7.60773e-05
13 *11:12 *637:77 3.09143e-06
14 *2417:A *1481:A 1.32348e-05
15 *2:10 *11:12 1.39256e-05
16 *2:16 *1481:A 1.92742e-05
17 *2:16 *11:12 4.97191e-06
18 *3:12 *1481:A 3.48838e-06
19 *3:12 *11:12 0
20 *3:30 *1481:A 0
*RES
1 *1757:Z *11:12 32.9643 
2 *11:12 *1481:A 35.3214 
3 *11:12 *2417:B 5 
*END

*D_NET *12 0.00206104
*CONN
*I *2401:B I *D HA_X1
*I *2372:B I *D XNOR2_X1
*I *1487:A I *D INV_X1
*I *1644:A2 I *D NAND2_X1
*I *1755:Z O *D BUF_X1
*CAP
1 *2401:B 9.43146e-06
2 *2372:B 3.77162e-05
3 *1487:A 0
4 *1644:A2 7.19392e-06
5 *1755:Z 4.41988e-05
6 *12:31 4.9321e-05
7 *12:27 0.000338042
8 *12:16 0.000396936
9 *12:10 0.000116935
10 *1644:A2 *637:64 1.32348e-05
11 *2372:B *197:30 1.72084e-05
12 *2372:B *605:6 9.12631e-06
13 *2372:B *653:43 0
14 *12:16 *652:69 3.25689e-06
15 *12:27 *1651:A2 5.08499e-06
16 *12:27 *1653:A1 0.000113931
17 *12:27 *1653:A3 0.000476349
18 *12:27 *2399:B 3.01743e-06
19 *12:27 *197:30 6.54951e-05
20 *12:27 *198:12 4.92317e-06
21 *12:27 *642:72 0.000179057
22 *12:27 *648:78 3.59756e-05
23 *12:27 *652:69 3.35525e-06
24 *12:27 *652:82 1.701e-06
25 *12:27 *660:23 1.017e-05
26 *12:31 *605:6 2.14856e-06
27 *12:31 *605:15 3.23723e-07
28 *12:31 *653:43 0
29 *1652:A2 *12:16 1.71455e-06
30 *1652:A2 *12:27 1.28555e-06
31 *2391:A *12:27 3.06072e-05
32 *4:16 *1644:A2 5.52959e-06
33 *4:16 *2401:B 1.32348e-05
34 *4:16 *12:16 4.95679e-05
35 *4:46 *12:16 5.53792e-08
36 *4:46 *12:27 8.1341e-07
37 *4:72 *12:27 1.40971e-05
*RES
1 *1755:Z *12:10 20 
2 *12:10 *12:16 12.0357 
3 *12:16 *1644:A2 11.25 
4 *12:16 *12:27 55.2143 
5 *12:27 *12:31 6.25 
6 *12:31 *1487:A 5 
7 *12:31 *2372:B 19.4643 
8 *12:10 *2401:B 6.25 
*END

*D_NET *13 0.00279546
*CONN
*I *1576:A3 I *D NOR3_X1
*I *1486:A I *D INV_X1
*I *1634:A2 I *D NAND2_X1
*I *2398:B I *D HA_X1
*I *1754:Z O *D BUF_X1
*CAP
1 *1576:A3 1.50803e-05
2 *1486:A 0
3 *1634:A2 2.4146e-05
4 *2398:B 1.80331e-05
5 *1754:Z 4.89801e-05
6 *13:44 0.000234926
7 *13:38 0.000414983
8 *13:21 0.000272198
9 *13:10 0.000119929
10 *1634:A2 *1635:A4 3.58094e-06
11 *1634:A2 *637:64 0
12 *13:21 *195:8 6.92245e-06
13 *13:38 *1628:A2 4.88118e-06
14 *13:38 *1634:A1 1.34992e-06
15 *13:38 *1635:A1 0.0001269
16 *13:38 *1636:A1 7.41062e-06
17 *13:38 *1636:A2 4.39431e-06
18 *13:38 *192:10 3.02781e-05
19 *13:38 *195:8 1.78252e-06
20 *13:38 *642:51 5.1805e-05
21 *13:38 *652:52 1.58814e-07
22 *13:38 *751:12 0.00019485
23 *13:38 *775:12 6.42843e-05
24 *13:44 *1489:A2 3.02372e-05
25 *13:44 *1491:A 0
26 *13:44 *1491:B 2.23871e-06
27 *13:44 *1576:A1 2.55787e-06
28 *13:44 *1576:A2 1.19024e-05
29 *13:44 *2279:A1 9.38792e-05
30 *13:44 *2396:B 8.56664e-06
31 *13:44 *191:10 1.59864e-05
32 *13:44 *192:10 1.17104e-05
33 *13:44 *193:8 9.29527e-05
34 *13:44 *193:45 9.23817e-05
35 *13:44 *775:12 8.213e-06
36 *13:44 *775:14 0.000735826
37 *2398:A *13:21 2.85782e-06
38 *5:36 *1634:A2 3.37965e-05
39 *5:36 *2398:B 0
40 *5:36 *13:38 0
41 *5:49 *13:38 2.19365e-06
42 *5:64 *13:44 3.28821e-06
*RES
1 *1754:Z *13:10 14.2143 
2 *13:10 *2398:B 11.75 
3 *13:10 *13:21 5.67857 
4 *13:21 *1634:A2 13.25 
5 *13:21 *13:38 32.875 
6 *13:38 *13:44 47.375 
7 *13:44 *1486:A 5 
8 *13:44 *1576:A3 6.60714 
*END

*D_NET *14 0.00367523
*CONN
*I *1727:A I *D INV_X1
*I *1491:B I *D XNOR2_X1
*I *1576:A2 I *D NOR3_X1
*I *1613:A2 I *D NAND2_X1
*I *2408:B I *D HA_X1
*I *1752:Z O *D BUF_X1
*CAP
1 *1727:A 5.46212e-05
2 *1491:B 7.27152e-06
3 *1576:A2 2.67176e-05
4 *1613:A2 0
5 *2408:B 7.00751e-06
6 *1752:Z 0.000105153
7 *14:46 0.000505685
8 *14:35 0.000754723
9 *14:18 0.000430982
10 *14:12 0.000732865
11 *14:10 0.000642449
12 *1491:B *1491:A 1.10138e-05
13 *1576:A2 *1492:B1 5.62265e-05
14 *1576:A2 *191:10 8.41402e-06
15 *1576:A2 *775:14 8.75903e-06
16 *1727:A *2406:A 0
17 *14:35 *1605:A1 0
18 *14:35 *1607:A1 1.27666e-06
19 *14:35 *1608:A1 1.37468e-05
20 *14:35 *1609:A1 2.75788e-05
21 *14:35 *1609:A2 3.32596e-05
22 *14:35 *1609:A4 1.47056e-05
23 *14:35 *1614:A4 4.32144e-07
24 *14:35 *1617:A1 9.0878e-05
25 *14:35 *212:8 0
26 *14:35 *642:25 0
27 *14:35 *647:29 2.50761e-05
28 *14:35 *652:35 5.43947e-06
29 *14:46 *1491:A 8.26038e-06
30 *14:46 *1492:B1 2.14856e-06
31 *14:46 *1556:A 0
32 *14:46 *1577:A 0
33 *14:46 *1614:A1 0
34 *14:46 *1614:A4 2.61494e-05
35 *14:46 *2280:A2 0
36 *14:46 *2283:A1 0
37 *14:46 *512:14 1.37377e-05
38 *14:46 *640:22 0
39 *14:46 *674:8 0
40 *1610:A2 *14:46 0
41 *1611:A2 *14:46 1.91498e-06
42 *6:42 *14:35 4.45934e-05
43 *13:44 *1491:B 2.23871e-06
44 *13:44 *1576:A2 1.19024e-05
*RES
1 *1752:Z *14:10 26.7857 
2 *14:10 *14:12 53.25 
3 *14:12 *14:18 25.8571 
4 *14:18 *2408:B 5.75 
5 *14:18 *14:35 34.4643 
6 *14:35 *1613:A2 5 
7 *14:35 *14:46 46.6072 
8 *14:46 *1576:A2 20 
9 *14:46 *1491:B 6.25 
10 *14:12 *1727:A 10.25 
*END

*D_NET *15 0.00457738
*CONN
*I *2411:B I *D HA_X1
*I *1561:A2 I *D NAND2_X1
*I *1577:B I *D XNOR2_X1
*I *1728:A I *D INV_X1
*I *1746:Z O *D BUF_X1
*CAP
1 *2411:B 0
2 *1561:A2 0
3 *1577:B 0.000260191
4 *1728:A 1.38604e-05
5 *1746:Z 0.000105574
6 *15:53 0.000558196
7 *15:41 0.000484218
8 *15:28 0.000376179
9 *15:22 0.000380205
10 *15:12 0.000309673
11 *1577:B *1578:B1 3.65322e-06
12 *1577:B *1614:A1 1.29359e-05
13 *1577:B *2286:A2 1.68643e-06
14 *1577:B *2286:A3 6.0406e-05
15 *1577:B *677:29 1.03644e-05
16 *1577:B *833:28 1.84013e-05
17 *1728:A *647:35 0
18 *15:22 *1568:A1 1.50869e-06
19 *15:22 *1568:A3 1.85755e-05
20 *15:22 *1569:A2 0
21 *15:22 *218:8 0
22 *15:28 *1558:A1 0
23 *15:28 *1558:A2 1.45805e-05
24 *15:28 *1562:A2 4.46014e-06
25 *15:28 *1572:A1 2.99872e-05
26 *15:28 *2409:B 1.0958e-05
27 *15:28 *215:8 7.75807e-05
28 *15:28 *647:33 3.63228e-05
29 *15:41 *647:33 0.000271331
30 *15:53 *1607:A1 1.05661e-05
31 *15:53 *1614:A1 1.89812e-05
32 *15:53 *1617:A2 0
33 *15:53 *1617:A3 1.69607e-05
34 *15:53 *212:8 3.78407e-05
35 *15:53 *642:12 9.36292e-05
36 *15:53 *644:14 2.24822e-06
37 *15:53 *644:20 2.78598e-05
38 *15:53 *652:35 0
39 *1560:A2 *15:28 0
40 *1610:A2 *1577:B 1.91818e-05
41 *1726:A *15:28 5.54348e-05
42 *2392:A *1577:B 0
43 *2392:A *15:53 0
44 *2411:A *15:12 1.10223e-05
45 *2411:A *15:22 6.0887e-06
46 *6:52 *15:53 6.86862e-05
47 *6:87 *15:22 2.75346e-06
48 *6:87 *15:28 3.90891e-05
49 *6:104 *15:22 5.83607e-05
50 *7:51 *15:28 0.000232572
51 *7:51 *15:41 0.000276594
52 *7:66 *15:41 0.000538663
53 *7:66 *15:53 0
*RES
1 *1746:Z *15:12 25.4643 
2 *15:12 *15:22 33.9643 
3 *15:22 *15:28 33.4286 
4 *15:28 *1728:A 11.25 
5 *15:28 *15:41 48 
6 *15:41 *15:53 45.5357 
7 *15:53 *1577:B 34.1429 
8 *15:22 *1561:A2 5 
9 *15:12 *2411:B 5 
*END

*D_NET *16 0.00237712
*CONN
*I *2281:A2 I *D NAND2_X1
*I *1947:A I *D INV_X1
*I *2423:B I *D HA_X1
*I *1744:Z O *D BUF_X1
*CAP
1 *2281:A2 0.000235174
2 *1947:A 3.34509e-05
3 *2423:B 0.000103109
4 *1744:Z 9.18473e-05
5 *16:19 0.000639046
6 *16:8 0.000565377
7 *1947:A *193:21 2.1707e-05
8 *1947:A *715:8 5.41857e-05
9 *2281:A2 *1549:A2 0
10 *2281:A2 *2281:A1 1.21774e-06
11 *2281:A2 *2283:A1 0
12 *2281:A2 *507:12 0
13 *2281:A2 *512:14 0
14 *2281:A2 *792:16 6.81173e-05
15 *2423:B *644:54 0
16 *16:19 *2310:A 0
17 *16:19 *684:52 0
18 *16:19 *792:16 0.000258975
19 *5:79 *2281:A2 0.000297188
20 *8:18 *2423:B 7.72537e-06
*RES
1 *1744:Z *16:8 19.0714 
2 *16:8 *2423:B 20.25 
3 *16:8 *16:19 41.6429 
4 *16:19 *1947:A 15.25 
5 *16:19 *2281:A2 38.5714 
*END

*D_NET *1291 0.000268023
*CONN
*I *2686:A I *D CLKBUF_X1
*I *1743:Z O *D BUF_X1
*CAP
1 *2686:A 0.000134012
2 *1743:Z 0.000134012
*RES
1 *1743:Z *2686:A 23.25 
*END

*D_NET *1300 0.00242979
*CONN
*I *2377:A2 I *D NAND3_X1
*I *1941:A2 I *D NAND2_X1
*I *1943:B1 I *D OAI21_X1
*I *1944:S I *D MUX2_X1
*I *2381:B2 I *D OAI21_X1
*I *1740:Z O *D BUF_X1
*CAP
1 *2377:A2 8.45007e-05
2 *1941:A2 2.14055e-05
3 *1943:B1 4.33402e-06
4 *1944:S 0.000255915
5 *2381:B2 0
6 *1740:Z 0.000252612
7 *1300:38 4.84773e-05
8 *1300:27 0.000435774
9 *1300:14 0.000164554
10 *1300:10 0.000344546
11 *1941:A2 *1303:23 4.04973e-06
12 *1944:S *1303:16 1.701e-05
13 *1944:S *1304:106 2.89018e-05
14 *1300:14 *1304:106 1.32348e-05
15 *1300:27 *1304:106 5.70421e-05
16 *1300:27 *1322:24 0
17 *1300:38 *1303:23 1.50873e-06
18 *1300:38 *1304:106 6.92212e-05
19 *1328:D *1300:14 2.39679e-06
20 *1942:B *1944:S 0
21 *1943:A *1943:B1 7.72537e-06
22 *1943:B2 *1944:S 0.000196253
23 *1943:B2 *1300:38 6.47253e-05
24 *1944:B *1944:S 0
25 *2376:A2 *2377:A2 1.61803e-06
26 *2377:A3 *2377:A2 2.75346e-06
27 *2378:A2 *1944:S 0
28 *2379:B2 *1944:S 0
29 *2380:A *1300:27 0.000154747
30 *2380:B *1300:27 1.43238e-06
31 *2381:A *2377:A2 0.000158431
32 *2381:A *1300:14 1.43238e-06
33 *2381:B1 *1300:14 1.21774e-06
34 *2381:B1 *1300:27 1.64551e-05
35 *2687:A *1300:14 3.23723e-07
36 *154:8 *2377:A2 3.5628e-06
37 *202:12 *1944:S 0
38 *596:29 *1941:A2 0
39 *596:29 *1944:S 0
40 *596:29 *1300:38 0
41 *841:6 *1300:10 1.3414e-05
42 *1282:8 *2377:A2 2.16072e-07
*RES
1 *1740:Z *1300:10 37.8572 
2 *1300:10 *1300:14 6.25 
3 *1300:14 *2381:B2 5 
4 *1300:14 *1300:27 26.9286 
5 *1300:27 *1944:S 40.7857 
6 *1300:27 *1300:38 5 
7 *1300:38 *1943:B1 10.75 
8 *1300:38 *1941:A2 12.6071 
9 *1300:10 *2377:A2 21.6786 
*END

*D_NET *1279 0.000724424
*CONN
*I *2404:A I *D HA_X1
*I *2389:A I *D HA_X1
*I *2653:A I *D BUF_X4
*I *1325:Q O *D DFFR_X2
*CAP
1 *2404:A 1.68136e-05
2 *2389:A 2.82273e-05
3 *2653:A 5.28034e-05
4 *1325:Q 7.07345e-05
5 *1279:10 0.000128458
6 *1279:6 0.000134975
7 *2389:A *1303:842 7.72792e-06
8 *2653:A *1303:842 9.15668e-06
9 *2389:B *2653:A 2.52965e-06
10 *2404:B *1279:6 1.68643e-06
11 *154:31 *2389:A 5.01494e-05
12 *154:31 *1279:10 0.000146647
13 *167:25 *1279:6 7.4515e-05
*RES
1 *1325:Q *1279:6 13.25 
2 *1279:6 *1279:10 12.7143 
3 *1279:10 *2653:A 15.25 
4 *1279:10 *2389:A 13.7143 
5 *1279:6 *2404:A 6.67857 
*END

*D_NET *2 0.00401505
*CONN
*I *2420:A I *D HA_X1
*I *1719:A2 I *D NAND2_X1
*I *2424:A I *D HA_X1
*I *1688:A I *D INV_X1
*I *1677:A2 I *D NAND2_X1
*I *2419:A I *D HA_X1
*I *1940:Z O *D BUF_X1
*CAP
1 *2420:A 2.20447e-05
2 *1719:A2 0
3 *2424:A 0.000160186
4 *1688:A 9.33821e-06
5 *1677:A2 1.41474e-05
6 *2419:A 0.000172757
7 *1940:Z 2.4362e-05
8 *2:59 0.000292393
9 *2:44 0.000405937
10 *2:29 0.000365944
11 *2:16 0.000428666
12 *2:10 0.00021491
13 *1677:A2 *1677:A1 6.65423e-06
14 *1677:A2 *226:8 5.81102e-06
15 *1677:A2 *226:17 2.39679e-06
16 *1688:A *1715:A1 8.43215e-07
17 *1688:A *1722:A2 1.26998e-05
18 *2419:A *1687:A1 1.97303e-05
19 *2419:A *1689:B1 1.28122e-06
20 *2419:A *1692:A2 6.31337e-06
21 *2419:A *1696:A2 0
22 *2419:A *1696:B1 2.55331e-06
23 *2419:A *1700:A1 3.58272e-05
24 *2419:A *2418:B 4.12459e-06
25 *2419:A *3:30 4.79658e-06
26 *2419:A *155:27 1.28122e-06
27 *2419:A *164:14 3.02349e-05
28 *2420:A *1940:A 0
29 *2420:A *637:77 3.27005e-06
30 *2424:A *1479:A 1.21072e-05
31 *2424:A *1709:A1 0
32 *2424:A *1721:A 2.75346e-06
33 *2424:A *1721:B1 1.87637e-06
34 *2424:A *2421:A 0
35 *2424:A *156:8 0
36 *2424:A *160:8 9.0235e-05
37 *2:10 *2385:B 9.53714e-06
38 *2:10 *10:8 2.2331e-05
39 *2:10 *11:12 1.39256e-05
40 *2:16 *1481:A 1.92742e-05
41 *2:16 *1695:A2 2.5504e-06
42 *2:16 *2323:A 0
43 *2:16 *2417:A 4.62078e-06
44 *2:16 *3:12 0
45 *2:16 *3:30 0.000258937
46 *2:16 *11:12 4.97191e-06
47 *2:16 *162:10 0.000256235
48 *2:16 *637:77 4.73289e-06
49 *2:16 *677:73 1.41532e-05
50 *2:29 *1669:A2 1.14246e-05
51 *2:29 *1677:A1 1.40669e-05
52 *2:29 *1695:A2 2.46826e-06
53 *2:29 *162:10 0.000268232
54 *2:29 *647:97 1.23516e-06
55 *2:29 *647:110 1.06623e-05
56 *2:29 *662:16 0.000222367
57 *2:44 *1669:A2 9.24264e-05
58 *2:44 *1677:A1 5.32819e-06
59 *2:44 *1715:A1 0.000219131
60 *2:44 *2415:B 2.02955e-06
61 *2:44 *630:63 0
62 *2:44 *647:110 2.35942e-05
63 *2:44 *830:10 0
64 *2:59 *1715:A1 1.14365e-05
65 *2:59 *1721:A 4.97191e-06
66 *2:59 *1722:A1 0
67 *2:59 *1722:A2 1.59582e-06
68 *2:59 *1722:A3 8.57252e-05
69 *2:59 *1723:A2 1.86809e-06
70 *2:59 *2421:A 0
71 *2:59 *155:10 6.97394e-05
72 *2:59 *810:20 0
73 *2:59 *830:10 0
*RES
1 *1940:Z *2:10 19.3214 
2 *2:10 *2:16 31.9643 
3 *2:16 *2419:A 29.6786 
4 *2:16 *2:29 18.5714 
5 *2:29 *1677:A2 11.75 
6 *2:29 *2:44 38.5714 
7 *2:44 *1688:A 11.25 
8 *2:44 *2:59 22.0357 
9 *2:59 *2424:A 34.25 
10 *2:59 *1719:A2 5 
11 *2:10 *2420:A 7.25 
*END

*D_NET *1280 0.0247752
*CONN
*I *1817:A I *D OAI21_X1
*I *1896:A I *D OAI21_X1
*I *1933:A I *D OAI21_X1
*I *1756:A I *D OAI21_X1
*I *1883:A I *D OAI21_X1
*I *2272:A I *D OAI21_X1
*I *1846:A I *D OAI21_X1
*I *1804:A I *D OAI21_X1
*I *2405:B I *D HA_X1
*I *1839:A I *D OAI21_X1
*I *1850:A I *D AOI21_X1
*I *1836:A I *D AOI21_X1
*I *2260:A I *D OAI21_X1
*I *1469:A I *D BUF_X1
*I *1871:A I *D OAI21_X1
*I *1921:A I *D OAI21_X1
*I *1741:A I *D OAI21_X1
*I *2266:A I *D OAI21_X1
*I *1877:A I *D OAI21_X1
*I *1853:A I *D OAI21_X1
*I *1791:A I *D OAI21_X1
*I *1797:A I *D OAI21_X1
*I *1742:A I *D INV_X1
*I *2403:B I *D HA_X1
*I *1843:A I *D AOI21_X1
*I *2388:B I *D HA_X1
*I *2386:B I *D HA_X1
*I *1738:A I *D BUF_X1
*I *1326:Q O *D DFFR_X2
*CAP
1 *1817:A 0.000159305
2 *1896:A 6.00743e-05
3 *1933:A 0
4 *1756:A 0
5 *1883:A 0
6 *2272:A 4.77677e-05
7 *1846:A 0
8 *1804:A 0
9 *2405:B 0
10 *1839:A 0.000320589
11 *1850:A 0
12 *1836:A 0
13 *2260:A 0.000159852
14 *1469:A 0
15 *1871:A 4.15565e-05
16 *1921:A 0.000292087
17 *1741:A 0
18 *2266:A 0.000197743
19 *1877:A 0
20 *1853:A 8.71307e-06
21 *1791:A 0.000132329
22 *1797:A 6.83304e-05
23 *1742:A 8.10563e-06
24 *2403:B 6.28261e-05
25 *1843:A 0.00037723
26 *2388:B 3.87664e-05
27 *2386:B 6.48333e-05
28 *1738:A 0.000124178
29 *1326:Q 3.33708e-05
30 *1280:398 0.000516964
31 *1280:385 0.000586587
32 *1280:370 0.000440687
33 *1280:364 0.000380691
34 *1280:351 0.000422838
35 *1280:336 0.000396448
36 *1280:329 0.000193825
37 *1280:325 0.000398962
38 *1280:308 0.000686709
39 *1280:235 0.000678119
40 *1280:229 0.000563474
41 *1280:221 0.000384966
42 *1280:217 0.000592547
43 *1280:204 0.000475607
44 *1280:195 0.000493656
45 *1280:189 0.000448716
46 *1280:183 0.000369411
47 *1280:175 0.000641863
48 *1280:160 0.000368888
49 *1280:158 0.000577574
50 *1280:137 0.000398691
51 *1280:122 0.000147274
52 *1280:120 0.000336684
53 *1280:103 0.000733093
54 *1280:101 0.000419457
55 *1280:99 0.000134589
56 *1280:95 0.000633553
57 *1280:78 0.00043315
58 *1280:44 0.000593106
59 *1280:27 0.000282692
60 *1280:25 0.000391323
61 *1280:8 0.000310039
62 *1738:A *1325:RN 0
63 *1738:A *1303:16 3.89989e-05
64 *1738:A *1322:28 3.02372e-05
65 *1791:A *1791:B1 2.75346e-06
66 *1791:A *1297:133 4.71711e-05
67 *1791:A *1297:141 0.00017144
68 *1797:A *1797:B1 7.19036e-06
69 *1797:A *2088:B 4.20755e-07
70 *1797:A *1297:145 1.64838e-05
71 *1817:A *1405:CK 0
72 *1817:A *1817:B1 5.12813e-05
73 *1817:A *1303:940 0.00018676
74 *1839:A *1839:B1 0.000127736
75 *1839:A *1853:B1 4.98664e-05
76 *1843:A *1959:A1 4.64608e-05
77 *1843:A *2388:A 8.31741e-05
78 *1843:A *1295:27 5.93349e-05
79 *1843:A *1295:50 2.88793e-05
80 *1871:A *1871:B1 5.10511e-06
81 *1896:A *1896:B1 1.26998e-05
82 *1896:A *1303:940 0.000198626
83 *1921:A *1741:B1 3.56012e-06
84 *1921:A *1921:B1 2.75346e-06
85 *1921:A *1318:64 1.56074e-06
86 *2260:A *2260:B1 2.75346e-06
87 *2266:A *2266:B1 2.75346e-06
88 *2266:A *2678:A 0
89 *2272:A *1846:B1 2.96272e-05
90 *2272:A *1303:1012 0.000128884
91 *2272:A *1305:42 7.46962e-06
92 *2388:B *2388:A 1.36786e-05
93 *2403:B *1304:94 0
94 *2403:B *1304:96 0
95 *1280:8 *1303:16 0
96 *1280:8 *1322:28 0.000103957
97 *1280:25 *1325:RN 8.32929e-05
98 *1280:78 *1304:94 0
99 *1280:78 *1304:120 1.44464e-05
100 *1280:95 *1304:94 0
101 *1280:103 *1303:23 8.72098e-07
102 *1280:103 *1303:40 7.66202e-06
103 *1280:122 *1438:CK 9.91248e-06
104 *1280:137 *1438:CK 5.51369e-06
105 *1280:137 *1297:141 9.19916e-05
106 *1280:158 *1438:CK 3.61155e-06
107 *1280:158 *1297:141 4.43868e-06
108 *1280:160 *1853:B1 5.7295e-06
109 *1280:175 *1850:B2 0
110 *1280:195 *1427:CK 2.40456e-05
111 *1280:195 *1877:B1 1.21774e-06
112 *1280:204 *1877:B1 6.14523e-05
113 *1280:221 *2261:B1 0
114 *1280:221 *1303:463 0
115 *1280:221 *1314:26 0
116 *1280:221 *1315:14 1.05461e-05
117 *1280:229 *1294:194 1.36076e-05
118 *1280:229 *1315:29 0
119 *1280:235 *1741:B1 2.40321e-06
120 *1280:235 *1294:194 1.64993e-05
121 *1280:235 *1315:52 2.83077e-06
122 *1280:235 *1315:71 4.32144e-07
123 *1280:308 *1406:CK 0
124 *1280:308 *1295:83 0
125 *1280:308 *1304:94 0
126 *1280:325 *1295:81 1.30111e-05
127 *1280:325 *1295:83 9.11593e-06
128 *1280:329 *1846:B1 2.75346e-06
129 *1280:329 *1295:75 5.96952e-05
130 *1280:329 *1304:26 9.9032e-06
131 *1280:336 *1846:B1 0.000244145
132 *1280:336 *1883:B1 4.32144e-07
133 *1280:336 *1295:75 7.72537e-06
134 *1280:351 *1883:B1 0.000169837
135 *1280:364 *1294:67 0
136 *1280:370 *1756:B1 1.73151e-05
137 *1280:370 *1298:48 9.55059e-06
138 *1280:370 *1298:61 0.000101062
139 *1280:385 *1933:B1 1.25215e-05
140 *1280:385 *2003:A1 0
141 *1280:385 *1308:20 2.8602e-05
142 *1280:398 *1401:CK 0
143 *1382:D *1791:A 0
144 *1407:D *1280:370 1.68796e-05
145 *1415:D *1280:385 1.88334e-06
146 *1420:D *1280:183 0
147 *1436:D *1280:158 0
148 *1446:D *1280:122 0.000105291
149 *1446:D *1280:137 6.84316e-05
150 *1448:D *1280:217 0
151 *1525:A1 *1280:25 0
152 *1748:A2 *1921:A 4.7972e-06
153 *1748:B1 *1921:A 3.82849e-05
154 *1748:B2 *1921:A 3.22834e-06
155 *1748:B2 *1280:235 3.86283e-05
156 *1753:A2 *1280:370 8.34508e-06
157 *1761:A1 *1280:370 2.00182e-05
158 *1762:B1 *1280:370 4.38402e-05
159 *1762:B2 *1280:370 5.33113e-06
160 *1762:B2 *1280:385 1.87392e-05
161 *1763:A1 *1280:370 0
162 *1773:A1 *1280:99 4.68709e-05
163 *1791:B2 *1791:A 1.61446e-06
164 *1801:A1 *1797:A 6.1617e-06
165 *1801:A2 *1797:A 1.64551e-05
166 *1802:A1 *1280:120 7.56758e-05
167 *1803:A1 *1280:325 1.39839e-06
168 *1803:A2 *1280:325 4.38826e-05
169 *1804:B2 *1280:308 7.9958e-06
170 *1807:A2 *1280:325 6.92775e-06
171 *1808:A1 *1280:325 1.74934e-05
172 *1808:A2 *1280:325 5.91164e-06
173 *1836:B1 *1280:183 2.75346e-06
174 *1842:A *1843:A 1.73125e-05
175 *1844:A *1843:A 1.72405e-05
176 *1848:A1 *1280:325 2.39679e-06
177 *1850:B1 *1280:175 2.75346e-06
178 *1851:A *1280:175 1.20293e-05
179 *1854:A *1280:175 0
180 *1854:B1 *1839:A 0
181 *1854:B2 *1839:A 5.05929e-06
182 *1854:B2 *1280:160 8.58686e-06
183 *1874:A1 *1280:235 2.55331e-06
184 *1874:A2 *1280:235 0
185 *1874:B2 *1280:235 4.92112e-05
186 *1879:A1 *1280:195 1.43238e-06
187 *1880:B1 *1280:204 6.14523e-05
188 *1880:B2 *1280:195 3.89107e-05
189 *1880:B2 *1280:204 2.75346e-06
190 *1882:A1 *1280:364 1.26998e-05
191 *1886:A2 *1280:364 2.30608e-05
192 *1887:A1 *1280:364 9.57492e-07
193 *1896:B2 *1896:A 1.18232e-06
194 *1921:B2 *1921:A 2.11815e-06
195 *1923:A2 *1921:A 2.88181e-05
196 *1939:B *1280:99 0
197 *1939:B *1280:103 6.92212e-05
198 *1977:A *1843:A 1.3324e-05
199 *1990:A2 *1280:370 9.62051e-07
200 *1994:B1 *1817:A 3.22141e-05
201 *1994:B1 *1896:A 4.57324e-05
202 *2004:A2 *1280:385 6.91187e-06
203 *2005:A1 *1280:385 0
204 *2005:A2 *1280:385 0
205 *2006:A *1280:99 0
206 *2012:A *1280:325 8.24917e-06
207 *2037:A *1280:183 0
208 *2057:A1 *1280:195 0
209 *2057:A2 *1280:195 4.93921e-05
210 *2206:A *1280:183 0
211 *2220:S *1791:A 0
212 *2227:A2 *1871:A 1.13571e-05
213 *2227:A2 *1280:229 5.01029e-05
214 *2260:B2 *2260:A 6.85774e-07
215 *2261:B2 *1280:221 1.32348e-05
216 *2262:A1 *2260:A 7.16188e-07
217 *2265:A2 *2266:A 1.72405e-05
218 *2265:A2 *1280:217 0.000259647
219 *2275:B2 *2272:A 1.32348e-05
220 *2276:A1 *2272:A 0.000115116
221 *2328:A2 *2260:A 0
222 *2334:A1 *1280:221 5.96926e-05
223 *2334:A2 *1280:221 5.94205e-06
224 *2348:A2 *1280:217 0
225 *2349:A1 *1280:217 0
226 *2356:A2 *2266:A 3.30475e-06
227 *2386:A *2386:B 5.39428e-05
228 *2402:A *1280:25 1.78064e-05
229 *2403:A *2403:B 2.94455e-05
230 *63:8 *1921:A 3.26005e-06
231 *63:8 *1280:235 0
232 *64:10 *2260:A 0
233 *81:12 *1280:398 1.36133e-05
234 *86:8 *1280:308 7.31003e-06
235 *100:8 *1280:183 3.83757e-05
236 *153:10 *1280:95 0
237 *153:12 *1280:78 0
238 *153:12 *1280:95 0
239 *153:14 *1280:78 0
240 *154:27 *2403:B 3.13459e-05
241 *165:6 *1280:44 0.000317025
242 *167:8 *1280:25 8.53753e-05
243 *167:19 *1280:25 5.50692e-06
244 *169:12 *2388:B 6.97608e-05
245 *202:12 *1280:44 0.000221972
246 *378:10 *1280:217 0
247 *436:36 *1280:189 0
248 *448:14 *1791:A 4.18507e-05
249 *448:36 *1280:189 0.000146399
250 *459:60 *1280:235 5.58902e-05
251 *461:67 *1921:A 0
252 *461:82 *1280:235 2.46668e-06
253 *461:84 *1871:A 2.83434e-06
254 *461:84 *1280:235 0
255 *595:12 *1280:229 3.2433e-05
256 *609:123 *1280:229 8.08825e-05
257 *625:12 *2386:B 1.18301e-05
258 *625:12 *1280:27 1.77855e-05
259 *625:12 *1280:78 4.30618e-06
260 *625:32 *1280:78 1.93198e-05
261 *627:10 *2403:B 4.17885e-06
262 *633:21 *1843:A 1.94363e-05
263 *636:61 *1280:325 3.34681e-05
264 *636:67 *1280:336 5.23088e-05
265 *636:67 *1280:351 8.64288e-07
266 *636:76 *1280:351 6.57079e-05
267 *837:12 *1280:103 0
268 *837:40 *1280:308 0
269 *837:72 *1280:325 1.66315e-05
270 *837:147 *2266:A 0.000144027
271 *837:158 *2266:A 7.59792e-05
272 *837:175 *1280:195 0
273 *837:209 *2260:A 0.000149745
274 *837:209 *1280:217 7.78651e-05
275 *837:279 *1921:A 4.72682e-05
276 *837:412 *1280:325 1.26718e-05
277 *837:483 *1280:385 0.000251223
278 *837:483 *1280:398 1.73657e-05
279 *845:157 *1280:120 5.1474e-05
280 *851:8 *1921:A 2.30863e-05
281 *851:10 *1921:A 8.21988e-06
282 *876:43 *2266:A 1.00295e-05
283 *903:12 *1280:122 9.22998e-06
284 *910:8 *1280:325 3.09411e-06
285 *942:8 *1843:A 2.39679e-06
286 *944:8 *1280:325 0
287 *954:10 *1839:A 0
288 *1040:30 *1843:A 5.81102e-06
289 *1062:82 *1280:370 7.70714e-06
290 *1062:82 *1280:385 1.02123e-05
291 *1064:35 *1280:385 0
292 *1074:16 *1280:99 0
293 *1074:16 *1280:325 0
294 *1075:53 *1280:351 3.29223e-05
295 *1075:61 *1280:351 0.000156881
296 *1075:61 *1280:364 0.000121385
297 *1077:62 *1817:A 0
298 *1088:23 *1280:137 0.000119901
299 *1088:23 *1280:158 0.000658084
300 *1088:23 *1280:175 0
301 *1088:55 *1280:183 3.22492e-05
302 *1088:55 *1280:195 0
303 *1088:57 *1280:195 0
304 *1100:12 *1280:120 0
305 *1100:77 *2266:A 0
306 *1100:86 *2266:A 8.26635e-06
307 *1100:88 *2266:A 4.0925e-07
308 *1102:18 *2266:A 0
309 *1111:14 *1791:A 0.000223391
310 *1120:8 *1280:78 4.80378e-06
311 *1120:10 *2386:B 8.56664e-06
312 *1120:10 *1280:27 4.45814e-05
313 *1120:10 *1280:78 1.58752e-05
314 *1120:45 *2403:B 0
315 *1120:45 *1280:78 0.000125835
*RES
1 *1326:Q *1280:8 15.6786 
2 *1280:8 *1738:A 24.4286 
3 *1280:8 *1280:25 30.75 
4 *1280:25 *1280:27 6.35715 
5 *1280:27 *2386:B 18.0714 
6 *1280:27 *1280:44 40.25 
7 *1280:44 *2388:B 15.6786 
8 *1280:44 *1843:A 47.5172 
9 *1280:25 *1280:78 27.7143 
10 *1280:78 *2403:B 27.3571 
11 *1280:78 *1280:95 17.2143 
12 *1280:95 *1280:99 19.75 
13 *1280:99 *1280:101 5 
14 *1280:101 *1280:103 46.3929 
15 *1280:103 *1742:A 10.75 
16 *1280:103 *1280:120 46 
17 *1280:120 *1280:122 5.67857 
18 *1280:122 *1797:A 18.25 
19 *1280:122 *1280:137 11.4286 
20 *1280:137 *1791:A 44.2857 
21 *1280:137 *1280:158 39.8572 
22 *1280:158 *1280:160 4.25 
23 *1280:160 *1853:A 5.92857 
24 *1280:160 *1280:175 45.5357 
25 *1280:175 *1280:183 45.9286 
26 *1280:183 *1280:189 17.7143 
27 *1280:189 *1280:195 42.1072 
28 *1280:195 *1877:A 5 
29 *1280:195 *1280:204 19.25 
30 *1280:204 *2266:A 35.5 
31 *1280:204 *1280:217 24.6786 
32 *1280:217 *1280:221 31.25 
33 *1280:221 *1280:229 28.2143 
34 *1280:229 *1280:235 44.5 
35 *1280:235 *1741:A 5 
36 *1280:235 *1921:A 48.4643 
37 *1280:229 *1871:A 10.5714 
38 *1280:221 *1469:A 5 
39 *1280:217 *2260:A 30 
40 *1280:183 *1836:A 5 
41 *1280:175 *1850:A 5 
42 *1280:158 *1839:A 41.25 
43 *1280:99 *2405:B 5 
44 *1280:95 *1280:308 36.7857 
45 *1280:308 *1804:A 5 
46 *1280:308 *1280:325 45.0714 
47 *1280:325 *1280:329 10.75 
48 *1280:329 *1846:A 5 
49 *1280:329 *1280:336 23.75 
50 *1280:336 *2272:A 24.6429 
51 *1280:336 *1280:351 31.25 
52 *1280:351 *1883:A 5 
53 *1280:351 *1280:364 33.4286 
54 *1280:364 *1280:370 26.1429 
55 *1280:370 *1756:A 5 
56 *1280:370 *1280:385 47.5357 
57 *1280:385 *1933:A 5 
58 *1280:385 *1280:398 34.9286 
59 *1280:398 *1896:A 22.1786 
60 *1280:398 *1817:A 32.3214 
*END

*D_NET *1281 0.00163171
*CONN
*I *1518:A1 I *D NOR2_X4
*I *1749:A1 I *D NAND2_X1
*I *1781:A2 I *D NOR2_X1
*I *2026:A2 I *D NAND2_X1
*I *1470:A I *D INV_X4
*I *1737:A I *D BUF_X1
*I *1327:Q O *D DFFR_X1
*CAP
1 *1518:A1 0
2 *1749:A1 2.51756e-05
3 *1781:A2 3.96079e-06
4 *2026:A2 3.17751e-05
5 *1470:A 8.55349e-06
6 *1737:A 9.25594e-05
7 *1327:Q 0.000231645
8 *1281:45 3.57359e-05
9 *1281:43 5.53826e-05
10 *1281:37 0.000188642
11 *1281:14 0.000174323
12 *1737:A *1282:45 2.41308e-05
13 *1749:A1 *1749:A2 2.10961e-05
14 *1749:A1 *1282:83 7.93889e-06
15 *1749:A1 *1304:88 7.72792e-06
16 *1281:14 *1282:45 6.19521e-05
17 *1281:37 *1282:45 0.000195701
18 *1281:37 *1282:72 0
19 *1281:43 *1282:83 8.56664e-06
20 *1773:A1 *1781:A2 5.33113e-06
21 *1773:A1 *2026:A2 5.27632e-05
22 *1773:A1 *1281:37 0
23 *1781:A1 *1781:A2 3.09411e-06
24 *1781:A1 *2026:A2 1.68643e-06
25 *2026:A1 *1749:A1 1.2203e-05
26 *2026:A1 *2026:A2 4.79696e-05
27 *2026:A1 *1281:43 0.000132611
28 *2102:A1 *1281:43 0.000107416
29 *388:8 *1749:A1 1.81742e-05
30 *596:8 *1470:A 0
31 *596:8 *1281:14 1.6252e-05
32 *596:21 *1281:14 4.59693e-05
33 *876:8 *1749:A1 0
34 *1087:14 *1749:A1 7.72792e-06
35 *1087:16 *1749:A1 5.64879e-06
*RES
1 *1327:Q *1281:14 16.2857 
2 *1281:14 *1737:A 15.25 
3 *1281:14 *1470:A 5.92857 
4 *1327:Q *1281:37 25.1786 
5 *1281:37 *1281:43 12.7857 
6 *1281:43 *1281:45 5 
7 *1281:45 *2026:A2 10.25 
8 *1281:45 *1781:A2 5.75 
9 *1281:43 *1749:A1 14.3929 
10 *1281:37 *1518:A1 5 
*END

*D_NET *1282 0.00224124
*CONN
*I *1773:A2 I *D NOR2_X1
*I *1749:A2 I *D NAND2_X1
*I *2102:A2 I *D NAND2_X1
*I *1518:A2 I *D NOR2_X4
*I *1509:A I *D INV_X2
*I *2375:A2 I *D OR2_X1
*I *1735:A I *D BUF_X1
*I *2376:A2 I *D NAND2_X1
*I *1328:Q O *D DFFR_X1
*CAP
1 *1773:A2 4.69056e-05
2 *1749:A2 1.34608e-05
3 *2102:A2 0
4 *1518:A2 2.92462e-05
5 *1509:A 1.68594e-05
6 *2375:A2 0
7 *1735:A 0.000213009
8 *2376:A2 9.61409e-06
9 *1328:Q 3.24747e-05
10 *1282:83 9.8695e-05
11 *1282:72 6.75748e-05
12 *1282:45 0.000352692
13 *1282:34 0.000343475
14 *1282:17 0.000243919
15 *1282:8 6.53562e-05
16 *2376:A2 *2377:A2 1.61803e-06
17 *1282:8 *2377:A2 2.16072e-07
18 *1737:A *1282:45 2.41308e-05
19 *1749:A1 *1749:A2 2.10961e-05
20 *1749:A1 *1282:83 7.93889e-06
21 *1773:A1 *1773:A2 1.07828e-05
22 *1773:A1 *1282:83 6.48216e-07
23 *2026:A1 *1509:A 5.62244e-05
24 *2102:A1 *1509:A 5.56848e-05
25 *2102:A1 *1282:83 3.02372e-05
26 *2374:A1 *1282:45 5.85389e-05
27 *2376:A1 *1282:17 6.56185e-06
28 *2377:A3 *1282:8 0
29 *2377:A3 *1282:17 2.70833e-06
30 *153:10 *1282:45 6.5197e-05
31 *153:45 *1509:A 9.57492e-07
32 *153:45 *1282:45 0
33 *154:8 *1735:A 0
34 *154:8 *1282:8 0
35 *154:27 *1282:45 0
36 *585:6 *2376:A2 2.16072e-07
37 *585:6 *1282:34 2.39679e-06
38 *585:6 *1282:45 9.00811e-05
39 *596:21 *1282:45 4.30918e-06
40 *627:8 *1282:45 1.0794e-06
41 *631:10 *1282:83 0
42 *840:6 *1735:A 0
43 *840:6 *1282:34 0
44 *840:6 *1282:45 0
45 *876:8 *1749:A2 8.45319e-07
46 *876:8 *1773:A2 2.69048e-07
47 *1281:14 *1282:45 6.19521e-05
48 *1281:37 *1282:45 0.000195701
49 *1281:37 *1282:72 0
50 *1281:43 *1282:83 8.56664e-06
*RES
1 *1328:Q *1282:8 8.67857 
2 *1282:8 *2376:A2 6.25 
3 *1282:8 *1282:17 2.96429 
4 *1282:17 *1735:A 37.3929 
5 *1282:17 *1282:34 1.25 
6 *1282:34 *2375:A2 5 
7 *1282:34 *1282:45 46.4286 
8 *1282:45 *1509:A 18.7143 
9 *1282:45 *1518:A2 5 
10 *1518:A2 *1282:72 7.85714 
11 *1282:72 *2102:A2 5 
12 *1282:72 *1282:83 9.85714 
13 *1282:83 *1749:A2 11.8929 
14 *1282:83 *1773:A2 15.2143 
*END

*D_NET *1283 7.99537e-05
*CONN
*I *1733:A I *D BUF_X1
*I *1329:Q O *D DFF_X1
*CAP
1 *1733:A 3.17493e-05
2 *1329:Q 3.17493e-05
3 *473:36 *1733:A 1.64551e-05
*RES
1 *1329:Q *1733:A 13.75 
*END

*D_NET *1284 0.00178173
*CONN
*I *1725:A I *D BUF_X1
*I *1330:Q O *D DFF_X1
*CAP
1 *1725:A 0
2 *1330:Q 0
3 *1284:6 0.000890866
4 *1284:4 0.000890866
5 *1284:6 *1289:12 0
*RES
1 *1330:Q *1284:4 5 
2 *1284:4 *1284:6 88.75 
3 *1284:6 *1725:A 5 
*END

*D_NET *1285 0.000207279
*CONN
*I *1702:A I *D BUF_X1
*I *1331:Q O *D DFF_X1
*CAP
1 *1702:A 0.000103639
2 *1331:Q 0.000103639
*RES
1 *1331:Q *1702:A 20.3571 
*END

*D_NET *1286 0.000166085
*CONN
*I *1685:A I *D BUF_X1
*I *1332:Q O *D DFF_X1
*CAP
1 *1685:A 7.91034e-05
2 *1332:Q 7.91034e-05
3 *1685:A *1642:A 7.87811e-06
4 data_out[5] *1685:A 0
5 *691:12 *1685:A 0
*RES
1 *1332:Q *1685:A 28.0714 
*END

*D_NET *1287 0.00201353
*CONN
*I *1667:A I *D BUF_X1
*I *1333:Q O *D DFF_X1
*CAP
1 *1667:A 0
2 *1333:Q 1.50803e-05
3 *1287:8 0.000991686
4 *1287:6 0.00100677
5 *1287:8 *1289:12 0
*RES
1 *1333:Q *1287:6 6.60714 
2 *1287:6 *1287:8 98.75 
3 *1287:8 *1667:A 5 
*END

*D_NET *1288 0.000208412
*CONN
*I *1642:A I *D BUF_X1
*I *1334:Q O *D DFF_X1
*CAP
1 *1642:A 8.3927e-05
2 *1334:Q 8.3927e-05
3 *1642:A *1334:CK 0
4 *1642:A *1506:A 9.57948e-06
5 result[7] *1642:A 2.31008e-05
6 *1685:A *1642:A 7.87811e-06
*RES
1 *1334:Q *1642:A 19.9286 
*END

*D_NET *1289 0.00217004
*CONN
*I *1619:A I *D BUF_X1
*I *1335:Q O *D DFF_X1
*CAP
1 *1619:A 0
2 *1335:Q 7.15911e-05
3 *1289:12 0.000992217
4 *1289:10 0.00106381
5 *1289:10 *1333:CK 4.24217e-05
6 *1284:6 *1289:12 0
7 *1287:8 *1289:12 0
*RES
1 *1335:Q *1289:10 24.75 
2 *1289:10 *1289:12 98.75 
3 *1289:12 *1619:A 5 
*END

*D_NET *3 0.00538424
*CONN
*I *2417:A I *D HA_X1
*I *1687:A2 I *D NAND2_X1
*I *1466:A I *D INV_X1
*I *2394:A I *D HA_X1
*I *2416:A I *D HA_X1
*I *1646:A2 I *D NAND2_X1
*I *1798:Z O *D BUF_X1
*CAP
1 *2417:A 1.63837e-05
2 *1687:A2 0
3 *1466:A 2.0536e-05
4 *2394:A 4.5594e-05
5 *2416:A 5.42377e-06
6 *1646:A2 0.000275752
7 *1798:Z 0.000174801
8 *3:66 0.000378066
9 *3:44 0.000401576
10 *3:42 0.000606558
11 *3:38 0.000312555
12 *3:30 0.000378857
13 *3:12 0.000431709
14 *1466:A *1721:B2 1.83411e-06
15 *1466:A *634:62 0
16 *1646:A2 *1595:A 1.6324e-06
17 *1646:A2 *1655:A 0
18 *1646:A2 *1655:B1 2.14667e-06
19 *1646:A2 *637:75 0
20 *1646:A2 *647:93 0
21 *1646:A2 *677:56 3.02372e-05
22 *1646:A2 *677:71 5.19786e-05
23 *2394:A *165:24 0
24 *2416:A *1693:A1 1.40196e-06
25 *2416:A *642:76 7.72792e-06
26 *2417:A *1481:A 1.32348e-05
27 *2417:A *637:77 2.75788e-05
28 *3:12 *1481:A 3.48838e-06
29 *3:12 *1757:A 0
30 *3:12 *1798:A 9.04962e-06
31 *3:12 *2323:A 6.9903e-05
32 *3:12 *11:12 0
33 *3:30 *1481:A 0
34 *3:30 *1482:A 7.19036e-06
35 *3:30 *1687:A1 8.43215e-07
36 *3:30 *1690:A 2.82368e-05
37 *3:30 *1695:A2 9.787e-06
38 *3:30 *1695:A3 3.2449e-05
39 *3:30 *1695:A4 0
40 *3:30 *1700:A1 2.7984e-05
41 *3:30 *10:43 0
42 *3:30 *222:22 5.20238e-07
43 *3:30 *224:10 2.73619e-05
44 *3:30 *637:77 3.40971e-05
45 *3:30 *652:88 0
46 *3:38 *1687:A1 1.68643e-06
47 *3:38 *1689:A 1.97093e-05
48 *3:38 *1689:B2 8.0593e-05
49 *3:38 *219:19 0.000444526
50 *3:38 *803:22 4.21285e-05
51 *3:42 *1679:A1 7.19036e-06
52 *3:42 *1679:A2 0.000112546
53 *3:42 *1681:B2 3.30412e-05
54 *3:42 *1721:B2 6.82202e-07
55 *3:42 *634:62 0
56 *3:42 *792:38 2.28501e-05
57 *3:44 *1595:A 6.12114e-06
58 *3:44 *1706:A3 0.000154763
59 *3:44 *663:10 4.32298e-05
60 *3:44 *814:16 1.76034e-06
61 *3:66 *1575:A1 0
62 *3:66 *1575:A3 5.57182e-06
63 *3:66 *1706:A3 0.000417708
64 *3:66 *1707:A2 0.000232288
65 *3:66 *1731:B1 0
66 *3:66 *2394:B 0
67 *3:66 *186:8 3.13512e-06
68 *3:66 *643:35 1.79968e-06
69 *3:66 *815:12 4.80562e-05
70 *2419:A *3:30 4.79658e-06
71 *2:16 *2417:A 4.62078e-06
72 *2:16 *3:12 0
73 *2:16 *3:30 0.000258937
*RES
1 *1798:Z *3:12 35.6786 
2 *3:12 *3:30 43.5 
3 *3:30 *3:38 35.25 
4 *3:38 *3:42 24.75 
5 *3:42 *3:44 14.5 
6 *3:44 *1646:A2 39.5 
7 *3:44 *2416:A 10.75 
8 *3:42 *3:66 47.75 
9 *3:66 *2394:A 14.25 
10 *3:38 *1466:A 7.17857 
11 *3:30 *1687:A2 5 
12 *3:12 *2417:A 7.75 
*END

*D_NET *1290 0.000858726
*CONN
*I *1602:A I *D BUF_X1
*I *1336:Q O *D DFF_X1
*CAP
1 *1602:A 0
2 *1336:Q 0.000360913
3 *1290:12 0.000360913
4 *1290:12 *1331:CK 5.96952e-05
5 *1290:12 *1336:CK 0
6 *1290:12 *1574:A 0
7 *1290:12 *2207:A1 2.55781e-06
8 *1290:12 *1298:214 1.1499e-05
9 *1290:12 *1298:216 4.91285e-05
10 *2208:A1 *1290:12 0
11 *2209:A1 *1290:12 1.40196e-05
12 *450:33 *1290:12 0
*RES
1 *1336:Q *1290:12 45.8572 
2 *1290:12 *1602:A 5 
*END

*D_NET *1292 0.0140713
*CONN
*I *2156:A1 I *D NAND2_X1
*I *2231:A1 I *D NAND2_X2
*I *2250:A1 I *D NAND2_X2
*I *1574:A I *D BUF_X1
*I *2212:A1 I *D NAND2_X1
*I *2194:A1 I *D NAND2_X1
*I *2061:A1 I *D NAND2_X2
*I *2099:A1 I *D NAND2_X1
*I *2080:A1 I *D NAND2_X1
*I *2043:A1 I *D NAND2_X2
*I *2175:A1 I *D NAND2_X1
*I *2119:A1 I *D NAND2_X2
*I *2137:A1 I *D NAND2_X1
*I *2023:A1 I *D NAND2_X2
*I *2003:A1 I *D NAND2_X2
*I *1983:A1 I *D NAND2_X2
*I *1967:A1 I *D NAND2_X2
*I *1724:ZN O *D NAND2_X4
*CAP
1 *2156:A1 5.42432e-06
2 *2231:A1 0
3 *2250:A1 0
4 *1574:A 0.000406924
5 *2212:A1 6.12795e-05
6 *2194:A1 6.95504e-06
7 *2061:A1 0.000182284
8 *2099:A1 0
9 *2080:A1 0.000138334
10 *2043:A1 2.45194e-05
11 *2175:A1 6.09993e-06
12 *2119:A1 6.63535e-06
13 *2137:A1 7.56513e-06
14 *2023:A1 5.41917e-06
15 *2003:A1 1.21231e-05
16 *1983:A1 4.01167e-05
17 *1967:A1 2.32004e-05
18 *1724:ZN 0.00025213
19 *1292:215 0.00053836
20 *1292:200 0.000351039
21 *1292:196 0.000382468
22 *1292:190 0.000419734
23 *1292:171 0.000716403
24 *1292:138 0.000289701
25 *1292:134 0.000399071
26 *1292:121 8.9939e-05
27 *1292:119 0.000489067
28 *1292:117 0.000489067
29 *1292:115 0.000585776
30 *1292:113 0.000347029
31 *1292:96 0.000435391
32 *1292:85 0.000277642
33 *1292:74 0.000264502
34 *1292:70 0.000397206
35 *1292:55 0.00050148
36 *1292:40 0.0004451
37 *1292:27 0.000387685
38 *1292:14 0.000248582
39 *1292:10 0.000318532
40 *1574:A *1298:214 1.1499e-05
41 *1574:A *1298:216 7.12055e-05
42 *1983:A1 *1303:908 0
43 *2080:A1 *1313:37 3.23723e-07
44 *2080:A1 *1313:56 3.66886e-06
45 *2137:A1 *1457:CK 2.52965e-06
46 *2212:A1 *1318:64 0
47 *1292:10 *1337:CK 8.06304e-05
48 *1292:119 *1439:CK 0
49 *1292:119 *2065:A1 0
50 *1292:119 *1303:392 5.77238e-05
51 *1292:119 *1303:712 1.61803e-06
52 *1292:119 *1316:40 0
53 *1292:171 *1431:CK 0
54 *1292:190 *1377:CK 0.00024374
55 *1292:190 *2684:A 5.54348e-05
56 *1292:215 *1298:196 4.42523e-06
57 *1292:215 *1298:214 7.1877e-06
58 *1337:D *1292:10 2.04476e-05
59 *1337:D *1292:14 2.25658e-05
60 *1369:D *1292:196 1.82823e-05
61 *1377:D *1292:190 1.10223e-05
62 *1417:D *2043:A1 9.57492e-07
63 *1441:D *2080:A1 3.51992e-06
64 *1686:A1 *1292:10 5.59765e-05
65 *1747:A2 *2212:A1 0
66 *1767:A2 *1292:171 0
67 *1926:A1 *1292:138 1.21497e-05
68 *1926:A2 *1292:138 0
69 *1928:B2 *1292:119 7.72792e-06
70 *1930:A2 *1292:138 1.66193e-05
71 *1930:B1 *1292:134 5.51848e-05
72 *1967:A2 *1967:A1 2.75346e-06
73 *1969:A1 *1292:14 3.96215e-05
74 *1969:A2 *1292:14 6.0887e-06
75 *1985:A1 *1983:A1 4.45934e-05
76 *2004:A1 *1292:40 0
77 *2004:A1 *1292:55 0
78 *2023:A2 *2023:A1 2.75346e-06
79 *2029:A *2061:A1 2.08416e-06
80 *2031:A1 *1292:119 0
81 *2043:A2 *2043:A1 1.58752e-05
82 *2043:A2 *1292:134 8.56923e-06
83 *2045:A1 *1292:119 0
84 *2068:A1 *1292:119 0
85 *2080:A2 *2080:A1 4.6837e-06
86 *2081:A1 *2080:A1 6.9387e-05
87 *2081:A2 *2080:A1 8.43215e-07
88 *2082:A1 *2080:A1 2.39679e-06
89 *2082:A2 *2080:A1 1.65484e-05
90 *2099:A2 *2080:A1 8.43215e-07
91 *2099:A2 *1292:138 1.68643e-06
92 *2101:A1 *1292:138 1.86809e-06
93 *2101:A2 *2080:A1 0
94 *2119:A2 *1292:85 1.72405e-05
95 *2119:A2 *1292:96 0.000197045
96 *2137:A2 *1292:74 3.02351e-05
97 *2137:A2 *1292:85 6.78899e-05
98 *2153:A1 *1292:70 1.77822e-05
99 *2153:A2 *1292:70 4.18985e-05
100 *2156:A2 *2156:A1 2.43548e-06
101 *2156:A2 *1292:70 3.8744e-05
102 *2171:A1 *1292:113 5.0103e-05
103 *2175:A2 *2175:A1 2.52965e-06
104 *2194:A2 *2194:A1 9.62051e-07
105 *2196:A2 *1292:171 0
106 *2196:A2 *1292:190 0
107 *2198:A2 *1292:215 6.46911e-05
108 *2212:A2 *2212:A1 0.000170127
109 *2212:A2 *1292:215 8.16058e-05
110 *2217:A *1292:190 1.76665e-06
111 *2233:A1 *1292:190 1.64551e-05
112 *2233:A2 *1292:196 0
113 *2250:A2 *1292:200 0.000218608
114 *2384:A *1292:10 3.48838e-06
115 *2661:A *2137:A1 0
116 *103:8 *1292:171 0
117 *105:8 *2061:A1 0
118 *147:10 *1292:196 0.000656257
119 *151:6 *1292:113 0
120 *391:60 *1292:96 2.04312e-06
121 *414:42 *2156:A1 0
122 *414:42 *1292:70 0
123 *426:47 *1292:96 5.54348e-05
124 *426:47 *1292:113 8.08825e-05
125 *450:48 *2212:A1 8.45953e-06
126 *450:48 *1292:215 7.14385e-06
127 *450:52 *2212:A1 7.19036e-06
128 *459:68 *1292:190 2.75346e-06
129 *488:8 *2080:A1 4.50258e-05
130 *593:43 *2061:A1 0.000106866
131 *593:89 *2119:A1 7.19036e-06
132 *595:98 *2119:A1 0
133 *595:213 *1292:190 1.12591e-05
134 *598:233 *1292:55 1.21311e-05
135 *598:323 *2194:A1 1.40196e-06
136 *609:85 *2080:A1 0.000247192
137 *609:156 *1292:190 1.62865e-05
138 *609:193 *2061:A1 0.000204621
139 *609:193 *1292:134 0.000118287
140 *756:12 *1967:A1 0
141 *796:6 *1574:A 0
142 *845:87 *1983:A1 6.11142e-05
143 *876:81 *1292:119 0
144 *876:91 *1292:171 1.21448e-05
145 *884:75 *2175:A1 7.19036e-06
146 *986:8 *2061:A1 0
147 *986:8 *1292:134 0
148 *1016:10 *1292:113 0
149 *1034:10 *1292:74 8.30934e-05
150 *1034:10 *1292:85 6.77459e-05
151 *1034:10 *1292:96 0.000105104
152 *1034:10 *1292:113 8.59699e-05
153 *1042:46 *1967:A1 0
154 *1042:46 *1292:14 0
155 *1062:82 *2003:A1 2.75346e-06
156 *1064:35 *2003:A1 0
157 *1064:35 *1292:40 0
158 *1077:53 *2023:A1 7.72537e-06
159 *1090:8 *2061:A1 3.93825e-05
160 *1090:52 *2061:A1 1.57087e-05
161 *1100:88 *2061:A1 2.5922e-05
162 *1111:89 *2080:A1 0
163 *1113:40 *2080:A1 0.000251581
164 *1113:40 *1292:138 1.21968e-05
165 *1113:44 *1292:138 0.000141827
166 *1280:385 *2003:A1 0
167 *1290:12 *1574:A 0
*RES
1 *1724:ZN *1292:10 45.7857 
2 *1292:10 *1292:14 13.25 
3 *1292:14 *1967:A1 12.1786 
4 *1292:14 *1292:27 16.5357 
5 *1292:27 *1983:A1 16.6786 
6 *1292:27 *1292:40 19.9286 
7 *1292:40 *2003:A1 11.25 
8 *1292:40 *1292:55 25 
9 *1292:55 *2023:A1 10.75 
10 *1292:55 *1292:70 33.5 
11 *1292:70 *1292:74 24.25 
12 *1292:74 *2137:A1 10.75 
13 *1292:74 *1292:85 16.5357 
14 *1292:85 *2119:A1 10.75 
15 *1292:85 *1292:96 25.3572 
16 *1292:96 *2175:A1 10.75 
17 *1292:96 *1292:113 42.8929 
18 *1292:113 *1292:115 7.71429 
19 *1292:115 *1292:117 5 
20 *1292:117 *1292:119 50.25 
21 *1292:119 *1292:121 5 
22 *1292:121 *2043:A1 13.0357 
23 *1292:121 *1292:134 9.07143 
24 *1292:134 *1292:138 24.75 
25 *1292:138 *2080:A1 41.25 
26 *1292:138 *2099:A1 5 
27 *1292:134 *2061:A1 37.3572 
28 *1292:115 *1292:171 53.8572 
29 *1292:171 *2194:A1 10.75 
30 *1292:171 *1292:190 32.4643 
31 *1292:190 *1292:196 44.8572 
32 *1292:196 *1292:200 25.75 
33 *1292:200 *2212:A1 19.8214 
34 *1292:200 *1292:215 22.2143 
35 *1292:215 *1574:A 49.25 
36 *1292:196 *2250:A1 5 
37 *1292:190 *2231:A1 5 
38 *1292:70 *2156:A1 5.75 
*END

*D_NET *1293 0.000516399
*CONN
*I *1548:A I *D BUF_X1
*I *1703:ZN O *D INV_X1
*CAP
1 *1548:A 0.000258199
2 *1703:ZN 0.000258199
3 *1548:A *1296:6 0
*RES
1 *1703:ZN *1548:A 45.9643 
*END

*D_NET *1294 0.0185287
*CONN
*I *2189:A1 I *D NAND2_X1
*I *2207:A1 I *D NAND2_X1
*I *2245:A1 I *D NAND2_X1
*I *2226:A1 I *D NAND2_X1
*I *1547:A I *D BUF_X1
*I *2094:A1 I *D NAND2_X1
*I *2056:A1 I *D NAND2_X1
*I *2038:A1 I *D NAND2_X1
*I *2075:A1 I *D NAND2_X1
*I *2170:A1 I *D NAND2_X1
*I *2114:A1 I *D NAND2_X1
*I *2132:A1 I *D NAND2_X1
*I *2151:A1 I *D NAND2_X1
*I *2018:A1 I *D NAND2_X1
*I *1998:A1 I *D NAND2_X1
*I *1978:A1 I *D NAND2_X1
*I *1962:A1 I *D NAND2_X1
*I *1684:ZN O *D OAI21_X4
*CAP
1 *2189:A1 0
2 *2207:A1 0.000197624
3 *2245:A1 2.00982e-05
4 *2226:A1 0
5 *1547:A 0.000258826
6 *2094:A1 6.62747e-06
7 *2056:A1 0.00017314
8 *2038:A1 1.22358e-05
9 *2075:A1 0.000208242
10 *2170:A1 0.000169774
11 *2114:A1 7.97244e-06
12 *2132:A1 6.87015e-05
13 *2151:A1 5.35723e-05
14 *2018:A1 5.6075e-06
15 *1998:A1 0
16 *1978:A1 0
17 *1962:A1 0.000136533
18 *1684:ZN 0.000301275
19 *1294:254 0.000354309
20 *1294:236 0.000631961
21 *1294:212 0.000370438
22 *1294:208 0.000567523
23 *1294:204 0.000373815
24 *1294:194 0.000534218
25 *1294:186 0.000481432
26 *1294:180 0.000342522
27 *1294:163 0.000174034
28 *1294:161 0.000277995
29 *1294:144 0.000468132
30 *1294:138 0.000686491
31 *1294:130 0.000793317
32 *1294:108 0.000253626
33 *1294:97 0.000234359
34 *1294:84 0.00014335
35 *1294:82 0.000501746
36 *1294:80 0.000501746
37 *1294:78 0.00087525
38 *1294:67 0.000413612
39 *1294:52 0.000443354
40 *1294:31 0.000490971
41 *1294:12 0.000617257
42 *1294:10 0.000556916
43 *1962:A1 *1298:14 9.74498e-05
44 *2075:A1 *1440:CK 3.61378e-07
45 *2132:A1 *1451:CK 1.52992e-05
46 *2132:A1 *1310:42 8.18007e-05
47 *2170:A1 *1355:CK 0
48 *2170:A1 *1866:B1 4.16464e-05
49 *2207:A1 *1336:CK 2.90169e-05
50 *2207:A1 *1315:97 0.000130192
51 *2245:A1 *1315:46 0
52 *1294:12 *1298:14 0.000145867
53 *1294:82 *1347:CK 2.82831e-05
54 *1294:82 *1351:CK 1.32323e-05
55 *1294:97 *1310:38 5.94174e-07
56 *1294:108 *1451:CK 3.99051e-05
57 *1294:108 *1865:B1 0.000131821
58 *1294:108 *1310:38 3.28571e-07
59 *1294:130 *2254:B1 0
60 *1294:130 *1303:318 0
61 *1294:144 *1440:CK 4.9788e-05
62 *1294:144 *1303:400 9.60257e-05
63 *1294:144 *1313:8 0
64 *1294:144 *1313:28 0
65 *1294:180 *1419:CK 0.00023657
66 *1294:186 *1315:71 3.89741e-05
67 *1294:204 *2327:A1 0.000120351
68 *1294:254 *1315:52 8.47934e-05
69 *1294:254 *1315:71 5.39659e-06
70 *1294:254 *1315:97 3.4802e-05
71 *1347:D *2151:A1 3.01743e-06
72 *1347:D *1294:82 2.08416e-06
73 *1351:D *1294:82 2.08416e-06
74 *1352:D *1294:78 0
75 *1352:D *1294:130 0
76 *1359:D *1294:130 7.82011e-06
77 *1371:D *2207:A1 1.32167e-05
78 *1379:D *1294:194 1.71847e-05
79 *1387:D *1294:254 1.09969e-05
80 *1417:D *1294:130 0.000106622
81 *1427:D *2056:A1 9.41688e-05
82 *1440:D *2075:A1 2.52965e-06
83 *1443:D *2056:A1 0
84 *1684:B2 *1294:10 6.89712e-05
85 *1865:B2 *1294:97 0.000133155
86 *1868:B2 *2170:A1 3.02689e-06
87 *1875:A1 *1294:161 1.39232e-06
88 *1875:A1 *1294:180 0.000171092
89 *1881:A1 *2038:A1 1.80259e-05
90 *1881:A1 *1294:161 1.07788e-05
91 *1881:A1 *1294:180 4.14884e-05
92 *1886:A1 *1294:67 4.79505e-06
93 *1930:A2 *1294:138 4.40064e-06
94 *1930:A2 *1294:144 1.87369e-06
95 *1930:A2 *1294:161 1.23316e-05
96 *1964:A2 *1962:A1 6.70982e-05
97 *1979:A1 *1294:52 5.56848e-05
98 *1980:A2 *1294:52 1.33704e-05
99 *1999:A1 *1294:52 0.000114542
100 *1999:A1 *1294:67 7.16188e-07
101 *1999:A2 *1294:67 8.29154e-06
102 *2000:A1 *1294:52 2.16072e-07
103 *2000:A1 *1294:67 1.61803e-06
104 *2000:A2 *1294:67 2.7847e-05
105 *2018:A2 *2018:A1 1.21774e-06
106 *2038:A2 *1294:161 3.85547e-06
107 *2039:A1 *1294:161 4.65284e-05
108 *2044:A1 *1294:138 1.25407e-05
109 *2044:A1 *1294:161 6.83579e-05
110 *2045:A1 *1294:138 2.14476e-05
111 *2045:A2 *1294:138 4.87096e-06
112 *2057:A2 *2056:A1 0
113 *2058:A2 *2056:A1 1.06276e-05
114 *2065:A2 *1294:138 0.000124804
115 *2066:A *2075:A1 7.99937e-06
116 *2077:A2 *2075:A1 0
117 *2084:A2 *2038:A1 6.46429e-06
118 *2084:A2 *1294:180 1.70233e-05
119 *2094:A2 *2056:A1 0.000146399
120 *2096:A1 *2094:A1 7.72537e-06
121 *2114:A2 *2170:A1 6.18086e-05
122 *2114:A2 *1294:108 3.02351e-05
123 *2116:A2 *2114:A1 2.39679e-06
124 *2116:A2 *2170:A1 1.56073e-06
125 *2151:A2 *2151:A1 2.16072e-07
126 *2152:A2 *2151:A1 0.000131821
127 *2152:A2 *1294:97 0.000115912
128 *2153:A2 *2151:A1 3.02372e-05
129 *2156:A2 *2151:A1 0
130 *2163:A2 *1294:130 5.39433e-05
131 *2170:A2 *2170:A1 4.37715e-05
132 *2191:A1 *1294:186 3.26648e-06
133 *2209:A1 *2207:A1 3.62783e-06
134 *2209:A2 *2207:A1 1.36133e-06
135 *2227:A2 *1294:194 1.02224e-05
136 *2228:A2 *1294:194 2.39679e-06
137 *2228:A2 *1294:204 1.19839e-05
138 *2245:A2 *2245:A1 1.21774e-06
139 *2247:A2 *2245:A1 0
140 *2253:A2 *1294:130 0
141 *2254:B2 *1294:130 0
142 *2257:A1 *1294:130 0
143 *2328:A1 *1294:204 2.23643e-05
144 *2329:A2 *1294:204 6.82458e-06
145 *2337:A1 *1294:130 2.19391e-05
146 *2337:A2 *1294:130 0
147 *2340:A1 *1294:82 0
148 *2340:A2 *1294:78 0
149 *2340:A2 *1294:130 0
150 *376:59 *2056:A1 7.89259e-05
151 *401:61 *2132:A1 8.43215e-07
152 *401:68 *2132:A1 4.4751e-05
153 *414:22 *1294:82 0
154 *414:33 *2151:A1 1.21774e-06
155 *414:33 *1294:82 0
156 *414:42 *2151:A1 6.82202e-07
157 *424:41 *2170:A1 9.31751e-05
158 *424:52 *2170:A1 9.44209e-05
159 *426:12 *1294:130 2.94435e-05
160 *436:73 *1294:186 1.66884e-05
161 *436:88 *1294:186 8.43215e-07
162 *438:17 *1294:186 0
163 *448:57 *2207:A1 2.33672e-05
164 *448:74 *2207:A1 7.83796e-06
165 *459:46 *1294:204 8.13101e-05
166 *459:53 *1294:204 6.35159e-05
167 *459:60 *1294:194 0.000221405
168 *459:60 *1294:204 1.21774e-06
169 *471:66 *2245:A1 2.21972e-05
170 *473:14 *2207:A1 4.11427e-05
171 *593:89 *2114:A1 0
172 *595:16 *1294:161 2.1185e-05
173 *595:16 *1294:186 4.35111e-05
174 *595:22 *1294:144 6.60887e-05
175 *595:22 *1294:161 4.51233e-06
176 *595:26 *1294:144 0.000151367
177 *595:89 *2132:A1 4.87096e-06
178 *595:98 *2132:A1 0
179 *598:197 *1294:97 0
180 *598:199 *1294:97 0
181 *598:213 *1294:97 0
182 *609:89 *1294:144 6.46697e-06
183 *609:187 *1294:144 1.73298e-05
184 *634:131 *1294:52 8.95027e-06
185 *756:12 *1294:12 0
186 *837:449 *2018:A1 0
187 *837:449 *1294:67 0
188 *837:451 *1294:67 0
189 *845:67 *1294:52 5.52692e-06
190 *853:27 *2056:A1 7.72792e-06
191 *964:12 *2170:A1 0.00021908
192 *964:12 *1294:108 0.000338946
193 *983:10 *1294:31 0
194 *983:10 *1294:52 5.8752e-06
195 *983:10 *1294:67 4.50392e-06
196 *986:8 *1294:67 7.4277e-06
197 *986:8 *1294:78 2.79222e-05
198 *986:8 *1294:130 7.11424e-05
199 *1040:34 *1962:A1 8.43215e-07
200 *1040:51 *1962:A1 4.21607e-06
201 *1040:51 *1294:12 2.14856e-06
202 *1040:55 *1294:12 0.000210267
203 *1042:19 *1962:A1 1.83053e-06
204 *1064:27 *1294:52 0.000172385
205 *1077:23 *2018:A1 7.72537e-06
206 *1088:72 *1294:161 1.26998e-05
207 *1088:82 *1294:161 2.3123e-05
208 *1090:21 *1294:161 3.46344e-05
209 *1102:20 *1294:161 2.24327e-06
210 *1113:12 *2075:A1 0
211 *1113:21 *1294:144 0
212 *1280:229 *1294:194 1.36076e-05
213 *1280:235 *1294:194 1.64993e-05
214 *1280:364 *1294:67 0
215 *1290:12 *2207:A1 2.55781e-06
*RES
1 *1684:ZN *1294:10 49.8572 
2 *1294:10 *1294:12 34.25 
3 *1294:12 *1962:A1 31.1786 
4 *1294:12 *1294:31 27.6429 
5 *1294:31 *1978:A1 10 
6 *1294:31 *1294:52 49.2857 
7 *1294:52 *1998:A1 5 
8 *1294:52 *1294:67 23.7857 
9 *1294:67 *2018:A1 10.75 
10 *1294:67 *1294:78 26.0357 
11 *1294:78 *1294:80 5 
12 *1294:80 *1294:82 50.25 
13 *1294:82 *1294:84 5 
14 *1294:84 *2151:A1 18.4643 
15 *1294:84 *1294:97 13.8214 
16 *1294:97 *2132:A1 20.75 
17 *1294:97 *1294:108 18.5714 
18 *1294:108 *2114:A1 10.75 
19 *1294:108 *2170:A1 36.1072 
20 *1294:78 *1294:130 73.5357 
21 *1294:130 *1294:138 30.1429 
22 *1294:138 *1294:144 39.5714 
23 *1294:144 *2075:A1 25.3572 
24 *1294:138 *1294:161 45.8214 
25 *1294:161 *1294:163 5 
26 *1294:163 *2038:A1 6.75 
27 *1294:163 *1294:180 38.5 
28 *1294:180 *1294:186 27.4286 
29 *1294:186 *1294:194 29.4286 
30 *1294:194 *1294:204 47.1072 
31 *1294:204 *1294:208 5.58929 
32 *1294:208 *1294:212 21.0179 
33 *1294:212 *2056:A1 35.4286 
34 *1294:212 *2094:A1 10.75 
35 *1294:208 *1294:236 45.625 
36 *1294:236 *1547:A 30.75 
37 *1294:194 *2226:A1 5 
38 *1294:186 *1294:254 16.8571 
39 *1294:254 *2245:A1 12.25 
40 *1294:254 *2207:A1 39.2857 
41 *1294:180 *2189:A1 5 
*END

*D_NET *1295 0.0150312
*CONN
*I *2130:A1 I *D NAND2_X1
*I *2242:A1 I *D NAND2_X1
*I *2223:A1 I *D NAND2_X1
*I *2186:A1 I *D NAND2_X1
*I *2205:A1 I *D NAND2_X1
*I *2035:A1 I *D NAND2_X1
*I *2054:A1 I *D NAND2_X1
*I *2091:A1 I *D NAND2_X1
*I *2072:A1 I *D NAND2_X1
*I *2167:A1 I *D NAND2_X1
*I *2111:A1 I *D NAND2_X1
*I *2148:A1 I *D NAND2_X1
*I *2015:A1 I *D NAND2_X1
*I *1541:A I *D BUF_X1
*I *1995:A1 I *D NAND2_X1
*I *1959:A1 I *D NAND2_X1
*I *1976:A1 I *D NAND2_X1
*I *1666:ZN O *D NAND2_X2
*CAP
1 *2130:A1 6.11544e-06
2 *2242:A1 0.000179083
3 *2223:A1 0
4 *2186:A1 1.68153e-05
5 *2205:A1 0.000113463
6 *2035:A1 6.21132e-05
7 *2054:A1 0.000145679
8 *2091:A1 9.87596e-06
9 *2072:A1 0.00020029
10 *2167:A1 1.79284e-05
11 *2111:A1 0
12 *2148:A1 7.5218e-06
13 *2015:A1 0
14 *1541:A 0
15 *1995:A1 1.68148e-05
16 *1959:A1 0.000203881
17 *1976:A1 3.06299e-05
18 *1666:ZN 0.000199492
19 *1295:212 0.000297557
20 *1295:201 0.000161605
21 *1295:199 0.000371427
22 *1295:182 0.000478361
23 *1295:172 0.000246996
24 *1295:170 0.000220459
25 *1295:164 0.000581418
26 *1295:147 0.000660163
27 *1295:134 0.000454456
28 *1295:124 0.000344886
29 *1295:111 0.000425465
30 *1295:100 0.000429231
31 *1295:83 0.000607193
32 *1295:81 0.000634308
33 *1295:75 0.000314958
34 *1295:63 0.000597243
35 *1295:50 0.000418108
36 *1295:27 0.000552766
37 *1295:12 0.0005459
38 *1295:10 0.00066562
39 *1959:A1 *1297:10 2.00546e-05
40 *2035:A1 *1420:CK 0
41 *2035:A1 *1851:B1 0
42 *2035:A1 *1312:62 0
43 *2054:A1 *1428:CK 5.43035e-06
44 *2054:A1 *1850:B2 4.78136e-05
45 *2054:A1 *1851:B1 1.26998e-05
46 *2072:A1 *1436:CK 0
47 *2072:A1 *1853:B1 0
48 *2072:A1 *1312:85 8.56032e-06
49 *2130:A1 *1307:80 2.52965e-06
50 *2205:A1 *1836:B2 9.9753e-05
51 *2205:A1 *1303:192 0.000223824
52 *1295:12 *1298:14 0
53 *1295:75 *1414:CK 1.26998e-05
54 *1295:75 *1304:26 0
55 *1295:134 *1307:74 1.25215e-05
56 *1295:134 *1307:80 1.46756e-05
57 *1295:147 *1858:B1 2.89309e-06
58 *1295:170 *1380:CK 9.62051e-07
59 *1295:172 *1380:CK 2.42929e-05
60 *1295:182 *1312:85 9.99269e-06
61 *1295:199 *1436:CK 0
62 *1295:199 *1312:68 0
63 *1295:199 *1312:70 0
64 *1295:212 *1312:62 0
65 *1295:212 *1312:68 0
66 *1348:D *1295:111 0
67 *1348:D *1295:124 0
68 *1356:D *2167:A1 2.16072e-07
69 *1356:D *1295:147 6.88146e-06
70 *1364:D *2186:A1 6.86795e-05
71 *1364:D *1295:172 6.48216e-07
72 *1364:D *1295:182 6.48216e-07
73 *1380:D *1295:170 8.2584e-06
74 *1396:D *1976:A1 1.4827e-05
75 *1396:D *1295:12 2.82896e-05
76 *1412:D *1295:100 0
77 *1436:D *2072:A1 2.83077e-06
78 *1444:D *2091:A1 0
79 *1444:D *1295:201 0
80 *1460:D *1295:134 6.19568e-06
81 *1666:A2 *1295:10 1.11168e-06
82 *1785:A *1295:134 1.48912e-05
83 *1807:A1 *1295:75 0
84 *1807:A2 *1295:75 1.83315e-05
85 *1807:B1 *1295:75 4.97446e-06
86 *1807:B2 *1295:75 3.52954e-05
87 *1808:A2 *1295:75 7.0746e-06
88 *1843:A *1959:A1 4.64608e-05
89 *1843:A *1295:27 5.93349e-05
90 *1843:A *1295:50 2.88793e-05
91 *1844:A *1295:50 2.77222e-05
92 *1847:B1 *1295:100 4.21902e-05
93 *1847:B2 *1295:63 5.56936e-06
94 *1847:B2 *1295:100 7.18184e-06
95 *1850:B1 *2054:A1 7.75269e-06
96 *1851:A *2054:A1 4.25204e-05
97 *1851:B2 *2035:A1 1.0863e-05
98 *1851:B2 *1295:212 6.32202e-06
99 *1857:B1 *1295:134 0.000119619
100 *1858:A *1295:134 5.94596e-05
101 *1858:A *1295:147 6.08836e-05
102 *1859:A2 *1295:147 9.24754e-05
103 *1860:B2 *1295:124 0
104 *1860:B2 *1295:134 0.00033744
105 *1860:B2 *1295:147 1.30571e-05
106 *1861:B1 *1295:147 6.87788e-06
107 *1862:A1 *1295:147 0
108 *1960:A *1959:A1 1.19839e-05
109 *1976:A2 *1976:A1 4.64501e-06
110 *1977:A *1976:A1 2.73227e-06
111 *1977:A *1295:27 1.94514e-05
112 *1995:A2 *1295:50 2.72171e-06
113 *1995:A2 *1295:63 2.96955e-05
114 *1996:A *1295:63 7.70247e-05
115 *1997:A *1295:63 0.000145608
116 *2007:A2 *1295:75 7.65847e-06
117 *2035:A2 *2035:A1 2.52965e-06
118 *2054:A2 *2054:A1 2.52965e-06
119 *2055:A *2054:A1 1.39753e-05
120 *2055:B1 *2054:A1 2.42487e-05
121 *2072:A2 *2072:A1 4.9678e-06
122 *2074:A *2072:A1 0
123 *2074:B1 *2072:A1 3.35822e-05
124 *2093:A *2091:A1 2.16072e-07
125 *2113:A *1295:134 1.77822e-05
126 *2113:A *1295:147 5.06473e-05
127 *2113:B1 *1295:147 7.58442e-05
128 *2130:A2 *2130:A1 8.43215e-07
129 *2131:A *2130:A1 2.16072e-07
130 *2131:A *1295:124 3.0203e-05
131 *2131:A *1295:134 6.48216e-07
132 *2131:B1 *1295:124 5.53323e-05
133 *2150:B1 *1295:124 0
134 *2168:A *1295:147 0
135 *2168:A *1295:164 0
136 *2169:A *2167:A1 6.56185e-06
137 *2186:A2 *2186:A1 3.65322e-06
138 *2186:A2 *1295:172 0
139 *2187:A *2186:A1 5.62244e-05
140 *2187:A *1295:182 2.09871e-05
141 *2188:A *1295:182 0
142 *2188:B1 *2186:A1 5.11191e-06
143 *2225:A *1295:170 2.70833e-06
144 *2225:A *1295:172 2.83077e-06
145 *2244:B1 *2242:A1 4.32144e-07
146 *2244:B2 *2242:A1 7.19036e-06
147 *28:8 *1295:124 0
148 *116:6 *2072:A1 6.56185e-06
149 *124:8 *2091:A1 0
150 *376:51 *1295:212 5.64879e-06
151 *376:55 *2091:A1 1.26998e-05
152 *376:55 *2205:A1 0.000118051
153 *376:55 *2242:A1 1.19839e-05
154 *376:55 *1295:201 8.76213e-05
155 *401:33 *1295:134 0
156 *412:17 *2148:A1 3.09411e-06
157 *412:26 *2148:A1 1.21774e-06
158 *424:84 *2167:A1 1.25215e-05
159 *424:84 *1295:147 3.01154e-05
160 *436:18 *1295:172 0
161 *448:14 *2205:A1 0.00024823
162 *448:25 *2205:A1 5.48932e-05
163 *448:36 *2205:A1 3.02372e-05
164 *459:29 *1295:170 0
165 *471:19 *2242:A1 0.000494003
166 *471:30 *2242:A1 2.89018e-05
167 *595:53 *1295:134 4.62294e-05
168 *632:19 *1295:75 0
169 *633:19 *1295:50 2.69895e-05
170 *633:21 *1295:50 4.131e-05
171 *636:10 *1959:A1 2.12363e-05
172 *636:61 *1295:75 2.42747e-05
173 *636:67 *1295:75 2.60188e-05
174 *837:40 *1295:75 1.33085e-05
175 *837:133 *2205:A1 0.000115654
176 *837:133 *1295:199 0.000133653
177 *837:133 *1295:201 7.19036e-06
178 *837:423 *1295:100 6.13645e-05
179 *884:29 *1295:147 0
180 *884:44 *1295:147 1.26074e-05
181 *910:10 *1295:75 1.39232e-06
182 *944:8 *1295:50 0
183 *944:8 *1295:63 1.16909e-05
184 *944:8 *1295:100 3.47057e-06
185 *948:8 *1295:164 3.38703e-05
186 *962:12 *1295:147 0
187 *962:12 *1295:164 0.000191699
188 *1039:23 *1295:75 8.05299e-05
189 *1040:30 *1959:A1 1.19839e-05
190 *1040:30 *1295:12 0
191 *1062:21 *1295:63 9.38792e-05
192 *1062:38 *1995:A1 2.52965e-06
193 *1062:38 *1295:50 6.24846e-06
194 *1075:27 *1295:100 4.20026e-05
195 *1075:34 *1295:100 1.85187e-05
196 *1075:34 *1295:111 2.16072e-07
197 *1075:38 *1295:100 2.39679e-06
198 *1075:38 *1295:111 9.9032e-06
199 *1088:23 *1295:212 3.92643e-05
200 *1088:38 *2035:A1 5.56848e-05
201 *1088:51 *2035:A1 2.96955e-05
202 *1111:57 *1295:164 0
203 *1111:57 *1295:170 0
204 *1111:61 *1295:164 0
205 *1280:308 *1295:83 0
206 *1280:325 *1295:81 1.30111e-05
207 *1280:325 *1295:83 9.11593e-06
208 *1280:329 *1295:75 5.96952e-05
209 *1280:336 *1295:75 7.72537e-06
*RES
1 *1666:ZN *1295:10 37.6429 
2 *1295:10 *1295:12 46.25 
3 *1295:12 *1976:A1 8.42857 
4 *1295:12 *1295:27 11.1071 
5 *1295:27 *1959:A1 29.5686 
6 *1295:27 *1295:50 41.8572 
7 *1295:50 *1995:A1 6.67857 
8 *1295:50 *1295:63 20.8571 
9 *1295:63 *1295:75 45.75 
10 *1295:75 *1295:81 7.96429 
11 *1295:81 *1295:83 59.6429 
12 *1295:83 *1541:A 5 
13 *1295:63 *1295:100 40.6072 
14 *1295:100 *2015:A1 5 
15 *1295:100 *1295:111 29.5 
16 *1295:111 *2148:A1 10.75 
17 *1295:111 *1295:124 27.6429 
18 *1295:124 *1295:134 34.0714 
19 *1295:134 *2111:A1 10 
20 *1295:134 *1295:147 43.9286 
21 *1295:147 *2167:A1 7.17857 
22 *1295:147 *1295:164 46.1786 
23 *1295:164 *1295:170 7.60715 
24 *1295:170 *1295:172 15.25 
25 *1295:172 *1295:182 19.4643 
26 *1295:182 *2072:A1 26.1072 
27 *1295:182 *1295:199 31.9643 
28 *1295:199 *1295:201 8.25 
29 *1295:201 *2091:A1 6.25 
30 *1295:201 *1295:212 16.1071 
31 *1295:212 *2054:A1 29.2857 
32 *1295:212 *2035:A1 17.6071 
33 *1295:199 *2205:A1 43.4643 
34 *1295:172 *2186:A1 19.3929 
35 *1295:170 *2223:A1 5 
36 *1295:164 *2242:A1 43.6429 
37 *1295:124 *2130:A1 5.75 
*END

*D_NET *1296 0.00124182
*CONN
*I *1540:A I *D BUF_X1
*I *1643:ZN O *D INV_X1
*CAP
1 *1540:A 3.4182e-05
2 *1643:ZN 0
3 *1296:6 0.00062091
4 *1296:4 0.000586728
5 *1548:A *1296:6 0
6 *1703:A *1296:6 0
*RES
1 *1643:ZN *1296:4 5 
2 *1296:4 *1296:6 58.25 
3 *1296:6 *1540:A 8.64286 
*END

*D_NET *1297 0.0105233
*CONN
*I *1956:B I *D MUX2_X1
*I *1992:B I *D MUX2_X1
*I *2108:B I *D MUX2_X1
*I *2127:B I *D MUX2_X1
*I *2164:B I *D MUX2_X1
*I *2239:B I *D MUX2_X1
*I *2220:B I *D MUX2_X1
*I *2088:B I *D MUX2_X1
*I *2069:B I *D MUX2_X1
*I *2051:B I *D MUX2_X1
*I *2032:B I *D MUX2_X1
*I *1520:A I *D BUF_X1
*I *2202:B I *D MUX2_X1
*I *2183:B I *D MUX2_X1
*I *2145:B I *D MUX2_X1
*I *2012:B I *D MUX2_X1
*I *1973:B I *D MUX2_X1
*I *1618:ZN O *D NAND3_X4
*CAP
1 *1956:B 0
2 *1992:B 0.000192696
3 *2108:B 1.4452e-05
4 *2127:B 1.26102e-05
5 *2164:B 3.39738e-05
6 *2239:B 8.27474e-06
7 *2220:B 0
8 *2088:B 3.29933e-05
9 *2069:B 4.28802e-05
10 *2051:B 4.85151e-05
11 *2032:B 4.53156e-05
12 *1520:A 0.000194607
13 *2202:B 6.35334e-05
14 *2183:B 0.000249482
15 *2145:B 1.9456e-05
16 *2012:B 1.86178e-05
17 *1973:B 1.10597e-05
18 *1618:ZN 9.71401e-05
19 *1297:153 0.000460788
20 *1297:149 0.000404142
21 *1297:147 0.000203771
22 *1297:145 0.000187562
23 *1297:141 0.000296134
24 *1297:133 0.000271432
25 *1297:116 0.000255303
26 *1297:112 0.000398192
27 *1297:106 0.00050454
28 *1297:98 0.000227909
29 *1297:92 0.000182241
30 *1297:75 0.000403125
31 *1297:64 0.000253799
32 *1297:53 0.000356629
33 *1297:45 0.000491623
34 *1297:20 0.000232851
35 *1297:14 6.00581e-05
36 *1297:10 0.000417772
37 *1297:8 0.000500482
38 *1992:B *1805:B1 0
39 *1992:B *1303:55 5.12475e-05
40 *2032:B *1430:CK 5.98684e-05
41 *2108:B *1306:14 1.08036e-06
42 *2183:B *1303:93 0
43 *2183:B *1306:22 0
44 *2202:B *1390:CK 3.01743e-06
45 *2202:B *1303:136 0.000192418
46 *2202:B *1306:102 0.000104618
47 *1297:10 *1304:51 0
48 *1297:45 *1304:28 1.33704e-05
49 *1297:45 *1304:30 4.55653e-05
50 *1297:45 *1304:36 1.58752e-05
51 *1297:53 *1304:26 1.13365e-05
52 *1297:92 *1306:14 2.45512e-05
53 *1297:106 *1303:249 6.76399e-05
54 *1297:116 *1390:CK 0
55 *1297:116 *1791:B1 5.92963e-06
56 *1297:133 *1390:CK 2.74433e-05
57 *1297:133 *1303:136 1.59134e-05
58 *1297:133 *1303:147 6.18897e-05
59 *1297:141 *1438:CK 3.8766e-05
60 *1297:147 *1797:B1 2.04837e-05
61 *1297:149 *1797:B1 3.17922e-05
62 *1340:D *1297:10 0
63 *1350:D *1297:75 3.48838e-06
64 *1350:D *1297:92 1.01993e-05
65 *1390:D *2239:B 1.04584e-06
66 *1390:D *1297:116 3.3408e-05
67 *1398:D *1297:45 2.06232e-05
68 *1406:D *1992:B 4.68749e-06
69 *1414:D *1297:53 8.61962e-06
70 *1414:D *1297:64 5.7416e-06
71 *1422:D *1297:149 0
72 *1422:D *1297:153 0
73 *1454:D *1297:98 3.02372e-05
74 *1537:A1 *1297:8 0
75 *1537:A2 *1297:8 1.83288e-05
76 *1786:B2 *1297:98 9.24246e-06
77 *1788:B1 *1297:98 0.000106622
78 *1790:A1 *2202:B 2.67408e-05
79 *1790:A1 *1297:116 2.68636e-05
80 *1790:A2 *1297:116 9.06043e-06
81 *1791:A *1297:133 4.71711e-05
82 *1791:A *1297:141 0.00017144
83 *1795:A1 *1297:112 1.04893e-05
84 *1795:A2 *1297:112 0
85 *1797:A *2088:B 4.20755e-07
86 *1797:A *1297:145 1.64838e-05
87 *1797:B2 *2069:B 2.16603e-05
88 *1797:B2 *1297:147 3.18816e-05
89 *1800:A1 *2088:B 0
90 *1800:A2 *2051:B 8.99246e-06
91 *1801:B1 *1297:149 0
92 *1802:A1 *2202:B 8.22478e-06
93 *1805:A *1297:45 7.72537e-06
94 *1805:B2 *1297:45 1.62231e-05
95 *1806:A1 *1297:45 6.70962e-05
96 *1806:A1 *1297:53 5.43204e-05
97 *1809:A2 *1297:112 3.19164e-07
98 *1956:A *1297:20 0
99 *1956:A *1297:45 2.88527e-05
100 *1959:A1 *1297:10 2.00546e-05
101 *1973:A *1297:20 1.65458e-05
102 *1973:A *1297:45 6.2424e-06
103 *1992:S *1992:B 0
104 *2007:A1 *1992:B 9.05188e-05
105 *2069:S *1297:145 2.83434e-06
106 *2103:A2 *2183:B 9.2121e-06
107 *2145:A *1297:64 9.52324e-06
108 *2145:A *1297:75 4.62991e-06
109 *2145:A *1297:92 2.72417e-06
110 *2178:A1 *2183:B 5.89793e-05
111 *2178:A2 *2183:B 4.32144e-07
112 *2183:A *2183:B 2.75346e-06
113 *2239:A *1297:116 2.3518e-05
114 *110:8 *2051:B 2.16072e-07
115 *118:8 *2069:B 1.46625e-05
116 *165:10 *1297:10 0
117 *388:12 *2183:B 0
118 *388:23 *2183:B 0
119 *389:6 *2108:B 3.19164e-07
120 *389:6 *2183:B 7.00735e-05
121 *389:6 *1297:92 2.01347e-05
122 *389:23 *1297:98 1.90574e-06
123 *401:12 *2127:B 4.21607e-06
124 *401:12 *1297:106 3.2074e-06
125 *412:8 *2145:B 0
126 *436:8 *2183:B 3.79775e-05
127 *448:14 *1297:133 1.78252e-06
128 *633:19 *1973:B 2.55331e-06
129 *633:19 *1297:14 1.50966e-05
130 *633:19 *1297:20 3.90865e-05
131 *636:8 *1973:B 0
132 *636:8 *1297:20 0
133 *636:10 *1297:10 0.000425771
134 *636:52 *1992:B 1.22461e-05
135 *636:52 *1297:45 6.55703e-05
136 *837:40 *1992:B 1.2168e-05
137 *837:55 *1297:53 0.000157273
138 *837:76 *1297:106 8.70229e-06
139 *837:360 *2202:B 9.118e-06
140 *837:360 *1297:106 6.51379e-06
141 *837:362 *2202:B 1.25215e-05
142 *845:40 *1992:B 1.6126e-05
143 *845:40 *1297:45 6.44559e-05
144 *845:168 *2127:B 0
145 *845:168 *1297:106 0
146 *845:181 *2127:B 0
147 *853:12 *1297:112 0
148 *948:8 *1297:98 0.000169474
149 *948:8 *1297:106 0.000144628
150 *1062:17 *1297:45 9.70781e-07
151 *1075:14 *1992:B 2.78969e-05
152 *1075:27 *2012:B 2.30833e-05
153 *1111:14 *1297:116 1.02269e-05
154 *1111:14 *1297:133 4.9678e-06
155 *1111:14 *1297:141 2.97526e-06
156 *1280:137 *1297:141 9.19916e-05
157 *1280:158 *1297:141 4.43868e-06
*RES
1 *1618:ZN *1297:8 20.25 
2 *1297:8 *1297:10 58.6072 
3 *1297:10 *1297:14 6.75 
4 *1297:14 *1297:20 11.0357 
5 *1297:20 *1973:B 11.25 
6 *1297:20 *1297:45 36.8929 
7 *1297:45 *1297:53 26.0714 
8 *1297:53 *2012:B 12.25 
9 *1297:53 *1297:64 24.6786 
10 *1297:64 *2145:B 12.25 
11 *1297:64 *1297:75 2.28572 
12 *1297:75 *2183:B 39.3572 
13 *1297:75 *1297:92 20.3929 
14 *1297:92 *1297:98 19.0714 
15 *1297:98 *1297:106 35.0714 
16 *1297:106 *1297:112 28.9286 
17 *1297:112 *1297:116 17.75 
18 *1297:116 *2202:B 22.6786 
19 *1297:116 *1297:133 17.0714 
20 *1297:133 *1297:141 36.3214 
21 *1297:141 *1297:145 13.75 
22 *1297:145 *1297:147 9.07143 
23 *1297:147 *1297:149 11.1071 
24 *1297:149 *1297:153 35.1072 
25 *1297:153 *1520:A 24.25 
26 *1297:149 *2032:B 15.75 
27 *1297:147 *2051:B 14.75 
28 *1297:145 *2069:B 16.25 
29 *1297:141 *2088:B 7.75 
30 *1297:133 *2220:B 5 
31 *1297:112 *2239:B 5.92857 
32 *1297:106 *2164:B 7.75 
33 *1297:98 *2127:B 6.25 
34 *1297:92 *2108:B 6.25 
35 *1297:45 *1992:B 33.4643 
36 *1297:14 *1956:B 5 
*END

*D_NET *1298 0.012306
*CONN
*I *2141:A1 I *D NAND2_X1
*I *2104:A1 I *D NAND2_X1
*I *2047:A1 I *D NAND2_X1
*I *2179:A1 I *D NAND2_X1
*I *2198:A1 I *D NAND2_X1
*I *2235:A1 I *D NAND2_X1
*I *1508:A I *D BUF_X1
*I *2216:A1 I *D NAND2_X1
*I *2084:A1 I *D NAND2_X1
*I *2028:A1 I *D NAND2_X1
*I *2065:A1 I *D NAND2_X1
*I *2160:A1 I *D NAND2_X1
*I *2123:A1 I *D NAND2_X1
*I *2008:A1 I *D NAND2_X1
*I *1988:A1 I *D NAND2_X1
*I *1970:A1 I *D NAND2_X1
*I *1952:A1 I *D NAND2_X1
*I *1573:ZN O *D NAND3_X2
*CAP
1 *2141:A1 0
2 *2104:A1 0
3 *2047:A1 0
4 *2179:A1 8.35305e-06
5 *2198:A1 8.71307e-06
6 *2235:A1 0.000163563
7 *1508:A 0
8 *2216:A1 0
9 *2084:A1 0
10 *2028:A1 2.65305e-05
11 *2065:A1 7.61974e-06
12 *2160:A1 0.000147116
13 *2123:A1 5.75155e-06
14 *2008:A1 3.93632e-05
15 *1988:A1 6.82008e-06
16 *1970:A1 2.84753e-05
17 *1952:A1 0
18 *1573:ZN 4.28404e-06
19 *1298:216 0.000494833
20 *1298:214 0.000801926
21 *1298:200 0.000158698
22 *1298:196 0.000299748
23 *1298:185 0.000449754
24 *1298:177 0.00039564
25 *1298:164 0.000391736
26 *1298:154 0.000341291
27 *1298:137 0.000324026
28 *1298:122 0.000378199
29 *1298:107 0.000526833
30 *1298:97 0.000282872
31 *1298:80 0.000451883
32 *1298:74 0.000506327
33 *1298:61 0.000403651
34 *1298:48 0.000370655
35 *1298:33 0.000328305
36 *1298:22 0.000119825
37 *1298:14 0.000474115
38 *1298:12 0.000738148
39 *1298:8 0.000304676
40 *1970:A1 *1399:CK 3.06504e-05
41 *1970:A1 *1308:39 7.72792e-06
42 *2235:A1 *1331:CK 0
43 *2235:A1 *1318:75 0
44 *1298:12 *1299:8 0
45 *1298:33 *1308:39 0
46 *1298:48 *1308:37 0.000148381
47 *1298:80 *1777:B1 1.63266e-05
48 *1298:97 *1777:B1 1.20157e-06
49 *1298:185 *1741:B1 1.27244e-05
50 *1298:185 *1745:B1 5.61902e-05
51 *1298:196 *1741:B1 7.7493e-05
52 *1298:200 *1331:CK 9.57492e-07
53 *1298:214 *1331:CK 1.3489e-05
54 *1339:D *1298:14 8.34424e-06
55 *1343:D *1298:33 1.64551e-05
56 *1359:D *2160:A1 1.51496e-05
57 *1375:D *1298:214 1.88334e-06
58 *1425:D *1298:137 1.88334e-06
59 *1425:D *1298:154 6.0891e-05
60 *1455:D *1298:107 5.98958e-06
61 *1573:A2 *1298:8 3.09143e-06
62 *1573:A3 *1298:8 8.26038e-06
63 *1574:A *1298:214 1.1499e-05
64 *1574:A *1298:216 7.12055e-05
65 *1745:A *1298:185 1.94394e-05
66 *1747:A2 *1298:196 0
67 *1748:A1 *1298:196 4.23376e-05
68 *1748:A2 *1298:196 2.71361e-05
69 *1748:B1 *1298:196 5.36441e-07
70 *1759:B2 *1298:48 2.06972e-05
71 *1762:B1 *1298:48 0.000413506
72 *1763:A1 *1298:61 0
73 *1779:A1 *2160:A1 3.89862e-05
74 *1779:A2 *2160:A1 1.00588e-05
75 *1780:B2 *2160:A1 2.31997e-05
76 *1955:A2 *1298:33 1.53834e-05
77 *1962:A1 *1298:14 9.74498e-05
78 *1964:A2 *1298:14 3.65322e-06
79 *1970:A2 *1970:A1 3.09411e-06
80 *1970:A2 *1298:33 1.62643e-06
81 *1970:A2 *1298:48 5.20238e-07
82 *1972:A2 *1298:33 0
83 *1991:A1 *1298:48 8.59171e-06
84 *2023:A2 *1298:61 0
85 *2023:A2 *1298:74 0
86 *2028:A2 *2028:A1 1.5896e-05
87 *2047:A2 *1298:154 1.2783e-05
88 *2047:A2 *1298:164 1.87637e-06
89 *2050:A1 *1298:154 2.39679e-06
90 *2061:A2 *1298:154 7.65033e-06
91 *2063:A1 *1298:154 1.01361e-05
92 *2065:A2 *2065:A1 1.21774e-06
93 *2106:A2 *1298:107 4.8054e-07
94 *2107:A2 *1298:107 1.5601e-05
95 *2125:A2 *1298:97 0.000132442
96 *2126:A1 *2123:A1 7.16188e-07
97 *2126:A2 *1298:97 2.07052e-05
98 *2141:A2 *1298:74 4.44127e-06
99 *2141:A2 *1298:80 4.9678e-06
100 *2144:A1 *1298:74 1.72405e-05
101 *2144:A2 *1298:80 2.39679e-06
102 *2162:A2 *2160:A1 6.71612e-06
103 *2163:A2 *2160:A1 1.30565e-05
104 *2181:A2 *1298:185 2.45513e-05
105 *2182:A1 *1298:185 4.42782e-06
106 *2182:A2 *2179:A1 7.72537e-06
107 *2182:A2 *1298:185 8.27554e-05
108 *2194:A2 *2179:A1 1.21774e-06
109 *2198:A2 *1298:196 6.9187e-05
110 *2201:A1 *1298:214 1.70614e-05
111 *2212:A2 *1298:196 0.000272942
112 *2216:A2 *1298:185 4.9678e-06
113 *2218:A2 *1298:196 5.3139e-05
114 *2219:A1 *1298:196 1.18589e-06
115 *2219:A2 *1298:185 3.07364e-05
116 *2219:A2 *1298:196 4.42782e-06
117 *2238:A1 *2235:A1 1.43238e-06
118 *2250:A2 *2235:A1 2.38892e-05
119 *2299:A2 *1298:12 0
120 *2322:A1 *1298:12 0
121 *389:33 *1298:107 1.20843e-05
122 *391:28 *1298:97 3.69307e-05
123 *391:28 *1298:107 6.8329e-05
124 *403:14 *2123:A1 0
125 *412:43 *1298:80 0
126 *412:58 *1298:80 3.37286e-06
127 *424:33 *2160:A1 1.21774e-06
128 *424:37 *2160:A1 5.16856e-06
129 *436:88 *2179:A1 4.87096e-06
130 *436:88 *1298:177 8.58953e-06
131 *436:88 *1298:185 1.79214e-05
132 *448:74 *1298:214 0
133 *459:68 *1298:185 4.18301e-05
134 *461:67 *1298:185 2.16072e-07
135 *461:67 *1298:196 6.48216e-07
136 *461:82 *1298:196 8.20884e-06
137 *471:83 *2235:A1 8.43215e-07
138 *595:76 *2123:A1 7.72537e-06
139 *634:10 *1298:12 0.000174046
140 *636:87 *2008:A1 6.3924e-06
141 *636:98 *2008:A1 2.16072e-07
142 *674:12 *1298:12 6.49787e-06
143 *837:457 *1988:A1 9.57492e-07
144 *853:59 *1298:154 0
145 *853:59 *1298:164 0
146 *866:8 *1298:74 2.2802e-05
147 *880:16 *1298:80 1.40717e-05
148 *880:16 *1298:97 4.28435e-05
149 *884:53 *2160:A1 0
150 *1027:10 *2028:A1 1.5896e-05
151 *1040:30 *1298:14 4.47559e-05
152 *1040:34 *1298:14 0
153 *1040:51 *1298:14 8.39784e-05
154 *1040:51 *1298:33 2.39679e-06
155 *1040:55 *1970:A1 0
156 *1040:55 *1298:33 1.62563e-05
157 *1062:62 *1988:A1 1.21774e-06
158 *1062:82 *1988:A1 6.82202e-07
159 *1075:61 *2008:A1 2.00179e-05
160 *1088:82 *1298:164 5.56848e-05
161 *1102:24 *1298:164 8.06304e-05
162 *1102:39 *1298:154 4.30918e-06
163 *1102:39 *1298:164 9.52656e-06
164 *1280:370 *1298:48 9.55059e-06
165 *1280:370 *1298:61 0.000101062
166 *1290:12 *1298:214 1.1499e-05
167 *1290:12 *1298:216 4.91285e-05
168 *1292:119 *2065:A1 0
169 *1292:215 *1298:196 4.42523e-06
170 *1292:215 *1298:214 7.1877e-06
171 *1294:12 *1298:14 0.000145867
172 *1295:12 *1298:14 0
*RES
1 *1573:ZN *1298:8 10.75 
2 *1298:8 *1298:12 45.2857 
3 *1298:12 *1298:14 55.25 
4 *1298:14 *1298:22 13.5357 
5 *1298:22 *1952:A1 5 
6 *1298:22 *1298:33 15.3929 
7 *1298:33 *1970:A1 13.75 
8 *1298:33 *1298:48 33.1429 
9 *1298:48 *1988:A1 10.75 
10 *1298:48 *1298:61 17.9643 
11 *1298:61 *2008:A1 14.75 
12 *1298:61 *1298:74 29.6786 
13 *1298:74 *1298:80 36.9643 
14 *1298:80 *2123:A1 10.75 
15 *1298:80 *1298:97 27.9643 
16 *1298:97 *1298:107 20.1786 
17 *1298:107 *2160:A1 28.1072 
18 *1298:107 *1298:122 26.7143 
19 *1298:122 *2065:A1 10.75 
20 *1298:122 *1298:137 12.7857 
21 *1298:137 *2028:A1 13.75 
22 *1298:137 *1298:154 26.4286 
23 *1298:154 *1298:164 23.7143 
24 *1298:164 *2084:A1 10 
25 *1298:164 *1298:177 29.4286 
26 *1298:177 *1298:185 33.2143 
27 *1298:185 *2216:A1 5 
28 *1298:185 *1298:196 45.3572 
29 *1298:196 *1298:200 5.75 
30 *1298:200 *1298:214 26.8571 
31 *1298:214 *1298:216 55.25 
32 *1298:216 *1508:A 5 
33 *1298:214 *2235:A1 32.2857 
34 *1298:200 *2198:A1 5.92857 
35 *1298:177 *2179:A1 6.25 
36 *1298:154 *2047:A1 5 
37 *1298:97 *2104:A1 5 
38 *1298:74 *2141:A1 5 
*END

*D_NET *1299 0.0112702
*CONN
*I *2339:A1 I *D NAND2_X1
*I *2336:A1 I *D NAND2_X1
*I *2357:A1 I *D NAND2_X1
*I *1506:A I *D BUF_X1
*I *2330:A1 I *D NAND2_X1
*I *2324:A1 I *D NAND2_X1
*I *2327:A1 I *D NAND2_X1
*I *2348:A1 I *D NAND2_X1
*I *2333:A1 I *D NAND2_X1
*I *2354:A1 I *D NAND2_X1
*I *2351:A1 I *D NAND2_X1
*I *2345:A1 I *D NAND2_X1
*I *2342:A1 I *D NAND2_X1
*I *2360:A1 I *D NAND2_X1
*I *2363:A1 I *D NAND2_X1
*I *2366:A1 I *D NAND2_X1
*I *2369:A1 I *D NAND2_X1
*I *2322:ZN O *D NAND2_X4
*CAP
1 *2339:A1 0
2 *2336:A1 6.93013e-06
3 *2357:A1 0.000175491
4 *1506:A 0.000286988
5 *2330:A1 7.74917e-06
6 *2324:A1 0.000126141
7 *2327:A1 6.58988e-05
8 *2348:A1 4.78594e-05
9 *2333:A1 0.000129399
10 *2354:A1 6.56579e-05
11 *2351:A1 1.09784e-05
12 *2345:A1 7.56513e-06
13 *2342:A1 0
14 *2360:A1 8.73929e-06
15 *2363:A1 0
16 *2366:A1 2.96627e-05
17 *2369:A1 0.000185367
18 *2322:ZN 0.000144833
19 *1299:192 0.000319928
20 *1299:181 0.00037518
21 *1299:164 0.000386008
22 *1299:153 0.000217756
23 *1299:138 0.000466243
24 *1299:123 0.000337988
25 *1299:121 0.000395995
26 *1299:104 0.000507688
27 *1299:102 0.000519682
28 *1299:90 0.000484256
29 *1299:77 0.000300651
30 *1299:64 0.000164089
31 *1299:60 0.000379253
32 *1299:45 0.000495226
33 *1299:34 0.000500787
34 *1299:19 0.000405991
35 *1299:8 0.000426951
36 *1506:A *1334:CK 0
37 *1506:A *1314:91 0
38 *2333:A1 *1314:26 0
39 *2345:A1 *1307:80 2.52965e-06
40 *2348:A1 *1314:26 2.41398e-05
41 *2357:A1 *2267:B1 1.06306e-05
42 *2369:A1 *1303:885 7.42883e-05
43 *2369:A1 *1303:889 0
44 *1299:45 *1403:CK 0
45 *1299:45 *1416:CK 0
46 *1299:45 *1303:1006 5.10087e-06
47 *1299:153 *1314:26 1.28987e-05
48 result[6] *1506:A 1.91667e-07
49 *1344:D *2369:A1 0
50 *1368:D *2333:A1 1.83288e-05
51 *1376:D *1506:A 0
52 *1440:D *1299:121 3.99139e-05
53 *1452:D *1299:102 1.31288e-05
54 *1642:A *1506:A 9.57948e-06
55 *1858:A *1299:104 0
56 *1860:B2 *1299:102 1.19839e-05
57 *1861:B1 *1299:104 2.97112e-05
58 *1861:B2 *1299:102 0
59 *2018:A2 *1299:45 5.10087e-06
60 *2018:A2 *1299:60 7.66675e-07
61 *2113:A *1299:102 7.19036e-06
62 *2113:B1 *1299:102 1.68643e-06
63 *2262:A2 *1506:A 1.2203e-05
64 *2262:A2 *1299:181 9.93735e-05
65 *2262:A2 *1299:192 6.76378e-05
66 *2264:A2 *2357:A1 1.02133e-05
67 *2266:B2 *1299:121 0.000181136
68 *2267:A *2357:A1 4.02337e-05
69 *2267:B2 *2357:A1 4.90637e-05
70 *2268:A2 *2354:A1 4.23667e-05
71 *2269:A1 *1299:138 4.80313e-05
72 *2269:A2 *1299:121 0.000105832
73 *2269:A2 *1299:138 8.06366e-05
74 *2269:B1 *2357:A1 1.41396e-05
75 *2269:B2 *2354:A1 1.34578e-05
76 *2269:B2 *2357:A1 3.09411e-06
77 *2269:B2 *1299:123 4.21607e-06
78 *2274:A2 *1299:34 7.62342e-05
79 *2275:A2 *1299:45 0
80 *2275:B1 *1299:45 8.35175e-06
81 *2277:A2 *2357:A1 1.18206e-05
82 *2277:A3 *2357:A1 4.75126e-05
83 *2324:A2 *2324:A1 3.09411e-06
84 *2326:A1 *2324:A1 2.61469e-06
85 *2331:A1 *2330:A1 4.32144e-07
86 *2332:A1 *1506:A 1.01993e-05
87 *2335:A2 *2333:A1 2.39679e-06
88 *2342:A2 *1299:64 3.02372e-05
89 *2342:A2 *1299:77 3.12741e-05
90 *2345:A2 *1299:77 3.02351e-05
91 *2345:A2 *1299:90 5.41015e-05
92 *2348:A2 *2348:A1 1.21774e-06
93 *2350:A1 *2348:A1 8.97657e-06
94 *2350:A2 *2348:A1 0
95 *2352:A2 *1299:121 9.10489e-05
96 *2353:A1 *1299:104 1.72405e-05
97 *2353:A1 *1299:121 4.24402e-05
98 *2353:A2 *2351:A1 1.80284e-05
99 *2362:A1 *1299:45 2.99872e-05
100 *2362:A2 *1299:60 2.04312e-06
101 *2366:A2 *2366:A1 1.21774e-06
102 *2367:A2 *1299:34 8.08846e-05
103 *2368:A1 *1299:19 0
104 *2368:A1 *1299:34 0
105 *2369:A2 *2369:A1 1.21774e-06
106 *2371:A2 *2369:A1 2.39679e-06
107 *2665:A *2333:A1 0
108 *56:8 *2330:A1 2.39679e-06
109 *112:12 *2354:A1 2.75346e-06
110 *389:29 *1299:90 0
111 *389:77 *1299:90 0
112 *401:44 *2345:A1 0
113 *412:26 *1299:60 0
114 *412:32 *1299:60 7.16188e-07
115 *424:25 *2336:A1 1.68643e-06
116 *424:25 *1299:102 0.000100656
117 *424:33 *1299:90 2.96955e-05
118 *436:52 *2333:A1 7.16682e-05
119 *436:52 *2348:A1 0
120 *436:52 *1299:153 0
121 *436:69 *2333:A1 1.21774e-06
122 *448:40 *2330:A1 8.43215e-07
123 *448:44 *2324:A1 4.25617e-05
124 *448:44 *2330:A1 4.32144e-07
125 *448:57 *2324:A1 2.49793e-05
126 *459:46 *2327:A1 1.21774e-06
127 *459:53 *2327:A1 0.000112443
128 *598:111 *1299:121 6.01526e-05
129 *598:137 *2333:A1 0
130 *598:155 *2333:A1 0
131 *633:100 *2366:A1 3.85541e-05
132 *633:100 *1299:19 0
133 *796:6 *1506:A 0
134 *837:110 *1299:104 0
135 *837:119 *1299:104 0
136 *837:119 *1299:121 0
137 *837:147 *1299:121 0
138 *837:147 *1299:138 0
139 *837:158 *1299:138 0
140 *837:169 *1299:138 0
141 *837:209 *1299:138 0
142 *837:209 *1299:153 0
143 *837:209 *1299:164 0.000287218
144 *837:209 *1299:181 0.000188542
145 *837:224 *1299:181 0.000133653
146 *845:46 *1299:34 3.22783e-05
147 *845:54 *1299:45 8.88497e-06
148 *853:27 *2354:A1 0
149 *853:42 *2357:A1 4.32144e-07
150 *876:43 *2354:A1 6.92404e-05
151 *876:43 *2357:A1 5.3213e-05
152 *876:43 *1299:123 9.76549e-06
153 *876:58 *2357:A1 1.74205e-05
154 *884:44 *1299:102 0
155 *1040:30 *2369:A1 0
156 *1062:38 *1299:34 0.000167925
157 *1062:47 *1299:34 8.43215e-07
158 *1062:47 *1299:45 2.25089e-06
159 *1075:38 *2360:A1 8.43215e-07
160 *1075:47 *2360:A1 2.52965e-06
161 *1075:53 *1299:45 4.0126e-05
162 *1100:86 *2354:A1 6.60464e-06
163 *1100:88 *2357:A1 0
164 *1111:61 *2351:A1 7.96507e-06
165 *1111:70 *2351:A1 1.21774e-06
166 *1294:204 *2327:A1 0.000120351
167 *1298:12 *1299:8 0
*RES
1 *2322:ZN *1299:8 25.1786 
2 *1299:8 *2369:A1 31.25 
3 *1299:8 *1299:19 10.4286 
4 *1299:19 *2366:A1 13.75 
5 *1299:19 *1299:34 42.3572 
6 *1299:34 *2363:A1 5 
7 *1299:34 *1299:45 29.0714 
8 *1299:45 *2360:A1 10.75 
9 *1299:45 *1299:60 33.9286 
10 *1299:60 *1299:64 18.1429 
11 *1299:64 *2342:A1 10 
12 *1299:64 *1299:77 6.67857 
13 *1299:77 *2345:A1 10.75 
14 *1299:77 *1299:90 31.0357 
15 *1299:90 *1299:102 33.1072 
16 *1299:102 *1299:104 30.7857 
17 *1299:104 *2351:A1 11.75 
18 *1299:104 *1299:121 38.6429 
19 *1299:121 *1299:123 1.25 
20 *1299:123 *2354:A1 14.9286 
21 *1299:123 *1299:138 34.4286 
22 *1299:138 *2333:A1 26.25 
23 *1299:138 *1299:153 13.25 
24 *1299:153 *2348:A1 10.75 
25 *1299:153 *1299:164 20.1786 
26 *1299:164 *2327:A1 22.4286 
27 *1299:164 *1299:181 32.2143 
28 *1299:181 *2324:A1 25.25 
29 *1299:181 *1299:192 3.64286 
30 *1299:192 *2330:A1 10.75 
31 *1299:192 *1506:A 40.6786 
32 *1299:121 *2357:A1 29.9643 
33 *1299:90 *2336:A1 5.75 
34 *1299:60 *2339:A1 5 
*END

*D_NET *4 0.0040813
*CONN
*I *2401:A I *D HA_X1
*I *2391:A I *D HA_X1
*I *1679:A2 I *D NAND2_X1
*I *2400:A I *D HA_X1
*I *1946:A I *D INV_X1
*I *1647:A2 I *D NAND2_X1
*I *1633:A2 I *D NAND2_X1
*I *1778:Z O *D BUF_X1
*CAP
1 *2401:A 0
2 *2391:A 0.000289551
3 *1679:A2 0.000204747
4 *2400:A 4.39215e-05
5 *1946:A 1.35068e-05
6 *1647:A2 5.41994e-05
7 *1633:A2 9.4366e-06
8 *1778:Z 0.000188736
9 *4:72 0.000574529
10 *4:57 0.000164123
11 *4:46 0.000237923
12 *4:18 0.000138971
13 *4:16 0.000333657
14 *4:14 0.000262614
15 *1633:A2 *5:16 1.32323e-05
16 *1647:A2 *1633:A1 6.9845e-06
17 *1647:A2 *1648:A2 1.32323e-05
18 *1647:A2 *5:10 2.21514e-07
19 *1647:A2 *637:64 4.9678e-06
20 *1679:A2 *634:62 0
21 *1679:A2 *664:12 8.95939e-06
22 *1679:A2 *792:38 2.17305e-05
23 *1946:A *630:42 0
24 *1946:A *684:65 0
25 *2391:A *1488:A2 8.13216e-05
26 *2391:A *1731:B2 2.89018e-05
27 *2391:A *2373:B1 5.07716e-05
28 *2391:A *2391:B 7.00661e-06
29 *2391:A *12:27 3.06072e-05
30 *2391:A *176:8 2.48157e-05
31 *2391:A *600:61 0
32 *2391:A *600:72 0
33 *2400:A *1593:A 2.43946e-05
34 *2400:A *2399:B 8.71773e-06
35 *2400:A *198:12 7.19036e-06
36 *4:14 *1648:A3 0
37 *4:14 *1650:A2 0
38 *4:14 *1755:A 8.43215e-07
39 *4:14 *637:64 7.16188e-07
40 *4:16 *1644:A2 5.52959e-06
41 *4:16 *1652:A2 7.72792e-06
42 *4:16 *1755:A 0
43 *4:16 *2401:B 1.32348e-05
44 *4:16 *12:16 4.95679e-05
45 *4:16 *637:64 1.77156e-05
46 *4:18 *1652:A2 8.02126e-05
47 *4:18 *5:16 2.20333e-05
48 *4:46 *1652:A2 3.99469e-05
49 *4:46 *1653:A3 4.85778e-06
50 *4:46 *1656:A 6.78721e-07
51 *4:46 *12:16 5.53792e-08
52 *4:46 *12:27 8.1341e-07
53 *4:46 *198:12 0.000216584
54 *4:46 *684:52 1.79861e-05
55 *4:46 *684:63 0.000439905
56 *4:57 *2399:A 2.96269e-05
57 *4:57 *198:12 0.000129546
58 *4:72 *12:27 1.40971e-05
59 *4:72 *198:12 1.66988e-05
60 *4:72 *648:78 1.14031e-05
61 *3:42 *1679:A2 0.000112546
*RES
1 *1778:Z *4:14 34.1786 
2 *4:14 *4:16 9.75 
3 *4:16 *4:18 9.75 
4 *4:18 *1633:A2 6.25 
5 *4:18 *1647:A2 19.8929 
6 *4:16 *4:46 38.1429 
7 *4:46 *1946:A 11.25 
8 *4:46 *4:57 7.03572 
9 *4:57 *2400:A 14.9286 
10 *4:57 *4:72 8.39286 
11 *4:72 *1679:A2 33.75 
12 *4:72 *2391:A 46.7857 
13 *4:14 *2401:A 5 
*END

*D_NET *609 0.0147154
*CONN
*I *1928:A I *D OAI21_X1
*I *1822:A I *D OAI21_X1
*I *1901:A I *D OAI21_X1
*I *1765:A I *D OAI21_X1
*I *1812:A I *D OAI21_X1
*I *1891:A I *D OAI21_X1
*I *1922:A I *D OAI21_X1
*I *1745:A I *D OAI21_X1
*I *1872:A I *D OAI21_X1
*I *2261:A I *D OAI21_X1
*I *1878:A I *D OAI21_X1
*I *2267:A I *D OAI21_X1
*I *1866:A I *D OAI21_X1
*I *1828:A I *D OAI21_X1
*I *1907:A I *D OAI21_X1
*I *1916:A I *D OAI21_X1
*I *1775:A I *D OAI21_X1
*I *1490:Z O *D BUF_X1
*CAP
1 *1928:A 1.11045e-05
2 *1822:A 0.000104917
3 *1901:A 2.37172e-05
4 *1765:A 8.71307e-06
5 *1812:A 4.87842e-05
6 *1891:A 0
7 *1922:A 0
8 *1745:A 2.50112e-05
9 *1872:A 0
10 *2261:A 7.95818e-05
11 *1878:A 1.34378e-05
12 *2267:A 3.18692e-05
13 *1866:A 3.03796e-06
14 *1828:A 8.93151e-06
15 *1907:A 2.94289e-05
16 *1916:A 0
17 *1775:A 0
18 *1490:Z 6.9322e-05
19 *609:216 0.000473768
20 *609:197 0.000655057
21 *609:193 0.00043816
22 *609:187 0.000296595
23 *609:171 0.000402422
24 *609:156 0.000637338
25 *609:143 0.000536097
26 *609:136 0.000409376
27 *609:123 0.000402738
28 *609:108 0.000273896
29 *609:97 0.000284414
30 *609:89 0.000299299
31 *609:85 0.00035032
32 *609:56 0.000308193
33 *609:45 0.000587498
34 *609:35 0.00055163
35 *609:20 0.000545476
36 *609:14 0.000457204
37 *609:8 0.000544791
38 *1745:A *1741:B1 9.53714e-06
39 *1745:A *1745:B1 4.31956e-05
40 *1745:A *1748:B1 6.56144e-06
41 *1745:A *1298:185 1.94394e-05
42 *1745:A *1303:527 1.14231e-05
43 *1812:A *1812:B1 0
44 *1812:A *1814:A1 0
45 *1812:A *1814:A2 0
46 *1812:A *1814:B1 6.38328e-07
47 *1812:A *1303:582 1.99237e-05
48 *1812:A *1303:588 1.21774e-06
49 *1822:A *2053:B1 9.30875e-05
50 *1822:A *837:305 0
51 *1866:A *1868:B2 1.32323e-05
52 *1901:A *837:305 0
53 *1907:A *1354:CK 1.48912e-05
54 *1907:A *922:24 5.48932e-05
55 *1907:A *1303:769 0
56 *1907:A *1311:118 6.32202e-06
57 *1928:A *1930:B2 2.39679e-06
58 *1928:A *1303:392 2.39679e-06
59 *1928:A *1303:400 9.76549e-06
60 *2261:A *2261:B1 7.72537e-06
61 *2261:A *1303:463 9.05188e-05
62 *2261:A *1303:504 7.19036e-06
63 *2267:A *2357:A1 4.02337e-05
64 *2267:A *853:42 1.69265e-05
65 *609:14 *1303:301 0
66 *609:20 *1360:CK 3.30471e-05
67 *609:20 *1303:301 0
68 *609:20 *1303:318 0
69 *609:35 *1866:B1 8.73062e-05
70 *609:35 *1868:B2 1.72757e-05
71 *609:35 *866:8 3.84855e-05
72 *609:35 *1303:352 3.84855e-05
73 *609:35 *1303:379 1.52083e-06
74 *609:35 *1316:60 1.60274e-05
75 *609:45 *1868:A1 0
76 *609:45 *1868:B1 3.02749e-06
77 *609:45 *1916:B1 0
78 *609:45 *1918:A1 5.48248e-05
79 *609:45 *1918:A2 1.20388e-05
80 *609:45 *1918:B1 0
81 *609:45 *1918:B2 1.66988e-05
82 *609:45 *1919:A1 0
83 *609:56 *1354:CK 4.91538e-05
84 *609:56 *1916:B1 1.21774e-06
85 *609:56 *1918:B2 7.19036e-06
86 *609:56 *922:24 0.000132861
87 *609:85 *2080:A1 0.000247192
88 *609:89 *1294:144 6.46697e-06
89 *609:97 *1424:CK 0.000150402
90 *609:97 *2357:A2 4.16464e-05
91 *609:97 *1113:40 0.000158063
92 *609:97 *1313:56 1.55959e-05
93 *609:108 *2357:A2 7.88026e-05
94 *609:108 *1303:461 6.42262e-06
95 *609:123 *1280:229 8.08825e-05
96 *609:123 *1303:461 0.000473346
97 *609:136 *1872:B1 4.78054e-06
98 *609:136 *1303:504 0.000152085
99 *609:143 *1303:508 3.99137e-05
100 *609:156 *1292:190 1.62865e-05
101 *609:156 *1303:527 1.28122e-06
102 *609:156 *1303:533 0.000149608
103 *609:171 *1814:A2 0
104 *609:171 *2222:B1 4.91993e-05
105 *609:171 *1303:533 7.68094e-07
106 *609:171 *1303:547 7.41625e-05
107 *609:171 *1303:575 5.91618e-05
108 *609:171 *1303:582 2.39679e-06
109 *609:171 *1319:14 7.2638e-05
110 *609:171 *1319:25 1.87392e-05
111 *609:187 *1930:A1 2.23871e-06
112 *609:187 *1930:A2 0
113 *609:187 *1294:144 1.73298e-05
114 *609:187 *1303:400 0.000201917
115 *609:193 *2061:A1 0.000204621
116 *609:193 *986:8 0
117 *609:193 *1292:134 0.000118287
118 *609:197 *1088:82 0
119 *609:197 *1100:88 0.000170734
120 *609:197 *1102:39 0.000127913
121 *609:216 *853:85 0
122 *609:216 *1102:48 6.168e-05
123 *609:216 *1102:56 5.01029e-05
124 *1424:D *609:97 2.25647e-05
125 *1431:D *609:216 3.90891e-05
126 *1441:D *609:89 2.39679e-06
127 *1441:D *609:187 1.32348e-05
128 *1775:B1 *609:20 1.13641e-05
129 *1811:B2 *609:171 0
130 *1825:A1 *1822:A 7.19036e-06
131 *1828:B2 *1907:A 2.39679e-06
132 *1864:A1 *609:45 0
133 *1864:A2 *609:45 0
134 *1901:B1 *609:216 0
135 *1916:B2 *609:56 4.91141e-06
136 *1926:A1 *609:187 1.27666e-06
137 *1926:A1 *609:193 5.43291e-06
138 *1926:A2 *609:187 0.000107735
139 *2082:A2 *609:85 1.41532e-05
140 *2101:A2 *609:187 2.55331e-06
141 *2115:A2 *609:45 1.73125e-05
142 *2222:A *609:171 3.13272e-06
143 *2269:B1 *2267:A 1.32323e-05
144 *2269:B1 *609:97 0
145 *2359:A1 *609:97 2.95441e-05
146 *43:8 *609:143 7.66204e-06
147 *111:12 *609:197 2.39679e-06
148 *111:12 *609:216 1.67419e-05
149 *131:8 *609:35 4.67746e-06
150 *131:8 *609:45 1.61382e-05
151 *376:80 *1878:A 0
152 *389:29 *609:8 3.87635e-05
153 *389:29 *609:85 1.55606e-05
154 *389:33 *609:14 0
155 *389:33 *609:20 6.98737e-05
156 *389:37 *609:20 3.1943e-05
157 *389:37 *609:35 2.21916e-05
158 *389:50 *609:45 0
159 *389:77 *609:14 0
160 *389:77 *609:85 5.39412e-06
161 *391:6 *609:45 1.24656e-05
162 *391:20 *609:35 0
163 *391:66 *609:56 0
164 *391:68 *1828:A 1.25215e-05
165 *391:68 *609:56 0
166 *426:55 *609:45 0
167 *436:69 *609:123 6.92212e-05
168 *438:46 *609:171 0
169 *459:53 *2261:A 0
170 *459:60 *2261:A 0
171 *459:60 *609:136 0
172 *459:68 *609:143 2.23871e-06
173 *459:68 *609:156 3.54682e-05
174 *488:8 *609:85 0.000593402
175 *488:8 *609:97 5.80072e-05
176 *593:21 *1901:A 4.32298e-05
177 *593:29 *609:216 0.000105149
178 *593:35 *609:197 4.24967e-05
179 *593:35 *609:216 8.43215e-07
180 *593:43 *609:197 6.11183e-05
181 *593:70 *609:20 0.000198162
182 *593:126 *1828:A 1.19839e-05
183 *593:126 *1907:A 8.64288e-07
184 *593:135 *1828:A 2.39679e-06
185 *593:247 *1822:A 0.000159798
186 *593:247 *1901:A 2.96955e-05
187 *595:12 *609:136 0
188 *595:211 *609:136 0
189 *595:211 *609:143 0
190 *595:213 *609:156 0
191 *595:213 *609:171 0
*RES
1 *1490:Z *609:8 19.0714 
2 *609:8 *609:14 19 
3 *609:14 *609:20 40.7857 
4 *609:20 *1775:A 5 
5 *609:20 *609:35 39.6786 
6 *609:35 *609:45 44.0357 
7 *609:45 *1916:A 5 
8 *609:45 *609:56 35.7857 
9 *609:56 *1907:A 14.2143 
10 *609:56 *1828:A 11.25 
11 *609:35 *1866:A 6.25 
12 *609:8 *609:85 50.4643 
13 *609:85 *609:89 6.75 
14 *609:89 *609:97 30.6786 
15 *609:97 *2267:A 15.25 
16 *609:97 *609:108 13.9286 
17 *609:108 *1878:A 11.7857 
18 *609:108 *609:123 30.9286 
19 *609:123 *2261:A 14.75 
20 *609:123 *609:136 21.9286 
21 *609:136 *1872:A 5 
22 *609:136 *609:143 24.75 
23 *609:143 *1745:A 20 
24 *609:143 *609:156 35.75 
25 *609:156 *1922:A 5 
26 *609:156 *609:171 43.2857 
27 *609:171 *1891:A 5 
28 *609:171 *1812:A 10.6786 
29 *609:89 *609:187 23.75 
30 *609:187 *609:193 29.25 
31 *609:193 *609:197 42.1786 
32 *609:197 *1765:A 5.92857 
33 *609:197 *609:216 48.2857 
34 *609:216 *1901:A 13.6429 
35 *609:216 *1822:A 25.5714 
36 *609:187 *1928:A 6.25 
*END

*D_NET *593 0.0110656
*CONN
*I *1904:A1 I *D NOR2_X1
*I *1825:A1 I *D NOR2_X1
*I *1822:B1 I *D OAI21_X1
*I *1765:B1 I *D OAI21_X1
*I *1771:A1 I *D NOR2_X1
*I *1926:A1 I *D NOR2_X1
*I *1929:A1 I *D NOR2_X1
*I *1779:A1 I *D NOR2_X1
*I *2253:A1 I *D NOR2_X1
*I *1775:B1 I *D OAI21_X1
*I *1907:B1 I *D OAI21_X1
*I *1831:A1 I *D NOR2_X1
*I *1910:A1 I *D NOR2_X1
*I *1828:B1 I *D OAI21_X1
*I *1864:A1 I *D NOR2_X1
*I *1914:A1 I *D NOR2_X1
*I *1917:A1 I *D NOR2_X1
*I *1867:A1 I *D NOR2_X1
*I *2256:A1 I *D NOR2_X1
*I *1901:B1 I *D OAI21_X1
*I *1467:Z O *D BUF_X1
*CAP
1 *1904:A1 0.000129381
2 *1825:A1 9.40115e-05
3 *1822:B1 0
4 *1765:B1 0
5 *1771:A1 0
6 *1926:A1 0.000105868
7 *1929:A1 0
8 *1779:A1 5.29941e-05
9 *2253:A1 0.000101522
10 *1775:B1 1.15019e-05
11 *1907:B1 1.8709e-05
12 *1831:A1 0.000159332
13 *1910:A1 8.63971e-06
14 *1828:B1 0
15 *1864:A1 0.000216823
16 *1914:A1 1.5102e-05
17 *1917:A1 1.60901e-05
18 *1867:A1 0
19 *2256:A1 8.66573e-05
20 *1901:B1 6.07029e-06
21 *1467:Z 0
22 *593:247 0.000190127
23 *593:137 0.000193001
24 *593:135 4.92872e-05
25 *593:126 0.000149223
26 *593:104 0.000316977
27 *593:93 0.000137667
28 *593:89 0.00046993
29 *593:78 0.000530025
30 *593:70 0.000399622
31 *593:55 0.000280054
32 *593:53 0.000223638
33 *593:51 0.000391069
34 *593:45 0.000282033
35 *593:43 0.000410886
36 *593:35 0.00036948
37 *593:29 0.000419798
38 *593:21 0.000453227
39 *593:10 9.33791e-05
40 *593:4 0.000194412
41 *1775:B1 *609:20 1.13641e-05
42 *1779:A1 *2160:A1 3.89862e-05
43 *1779:A1 *884:53 5.11574e-06
44 *1825:A1 *1822:A 7.19036e-06
45 *1825:A1 *1826:A1 0.00010334
46 *1831:A1 *1833:A1 3.46934e-05
47 *1831:A1 *1913:A4 0.000105582
48 *1831:A1 *922:24 2.17135e-05
49 *1831:A1 *998:12 0.00040259
50 *1864:A1 *1353:CK 0
51 *1864:A1 *609:45 0
52 *1901:B1 *609:216 0
53 *1904:A1 *1467:A 2.52965e-06
54 *1904:A1 *1905:A1 3.5108e-06
55 *1904:A1 *837:305 2.96955e-05
56 *1904:A1 *1090:63 3.58094e-06
57 *1907:B1 *922:24 5.73616e-05
58 *1907:B1 *998:12 7.72163e-06
59 *1926:A1 *1930:A2 2.21259e-05
60 *1926:A1 *1930:B2 0
61 *1926:A1 *2044:A1 0
62 *1926:A1 *609:187 1.27666e-06
63 *1926:A1 *609:193 5.43291e-06
64 *1926:A1 *1027:10 4.38826e-05
65 *1926:A1 *1113:44 1.30771e-05
66 *1926:A1 *1292:138 1.21497e-05
67 *2256:A1 *986:8 3.47797e-05
68 *593:10 *1426:CK 8.58678e-06
69 *593:10 *1905:A1 1.91954e-06
70 *593:10 *1090:63 1.00571e-05
71 *593:21 *1901:A 4.32298e-05
72 *593:29 *1426:CK 0
73 *593:29 *1767:A1 0
74 *593:29 *1772:A2 6.38784e-06
75 *593:29 *2060:A 4.12459e-06
76 *593:29 *609:216 0.000105149
77 *593:29 *1090:61 0
78 *593:29 *1090:63 0
79 *593:29 *1102:56 1.36922e-05
80 *593:35 *1772:A1 5.06354e-05
81 *593:35 *1772:A2 2.70903e-06
82 *593:35 *1772:B1 0
83 *593:35 *1772:B2 6.56185e-06
84 *593:35 *609:197 4.24967e-05
85 *593:35 *609:216 8.43215e-07
86 *593:35 *1090:52 0
87 *593:43 *1772:B2 1.76665e-06
88 *593:43 *2061:A1 0.000106866
89 *593:43 *2062:A1 0
90 *593:43 *609:197 6.11183e-05
91 *593:43 *986:8 5.2296e-05
92 *593:43 *1090:52 2.11458e-06
93 *593:43 *1100:88 0.000101535
94 *593:45 *986:8 7.4751e-06
95 *593:51 *1359:CK 0.00042112
96 *593:51 *986:8 4.92231e-05
97 *593:53 *1359:CK 1.66822e-05
98 *593:53 *986:8 2.85258e-05
99 *593:55 *986:8 1.39599e-05
100 *593:70 *609:20 0.000198162
101 *593:78 *1780:A1 1.52083e-06
102 *593:78 *880:16 2.76199e-05
103 *593:78 *1303:348 0
104 *593:78 *1303:352 1.61002e-06
105 *593:78 *1303:740 0
106 *593:89 *1868:B2 7.09501e-06
107 *593:89 *1916:B1 0
108 *593:89 *2114:A1 0
109 *593:89 *2119:A1 7.19036e-06
110 *593:89 *1303:740 0
111 *593:89 *1303:755 0
112 *593:93 *1918:A2 9.30855e-05
113 *593:104 *1918:A1 4.05872e-05
114 *593:104 *1918:A2 0.000114581
115 *593:126 *1449:CK 8.08415e-05
116 *593:126 *1828:A 1.19839e-05
117 *593:126 *1907:A 8.64288e-07
118 *593:126 *1303:769 0
119 *593:135 *1828:A 2.39679e-06
120 *593:137 *922:24 3.09722e-05
121 *593:137 *998:12 0.000119869
122 *593:247 *1429:CK 6.44191e-06
123 *593:247 *1822:A 0.000159798
124 *593:247 *1901:A 2.96955e-05
125 *593:247 *2053:B1 8.08846e-05
126 *1353:D *1864:A1 1.32348e-05
127 *1431:D *593:29 3.96215e-05
128 *1449:D *593:89 0
129 *1449:D *593:126 0
130 *1451:D *593:78 0
131 *1451:D *593:89 0
132 *1771:A2 *593:43 4.86855e-05
133 *1775:B2 *593:78 0.000109604
134 *1779:A2 *1779:A1 0
135 *1779:A2 *593:51 1.59685e-05
136 *1779:A2 *593:53 5.43017e-05
137 *1822:B2 *593:247 2.52965e-06
138 *1825:A2 *1825:A1 2.22609e-05
139 *1828:B2 *1907:B1 2.94435e-05
140 *1828:B2 *593:126 8.43215e-07
141 *1828:B2 *593:135 1.68643e-06
142 *1831:A2 *1831:A1 1.21774e-06
143 *1864:A2 *1864:A1 5.52692e-06
144 *1901:B2 *1901:B1 3.09411e-06
145 *1901:B2 *593:10 3.77514e-06
146 *1901:B2 *593:21 2.10286e-06
147 *1901:B2 *593:29 0
148 *1910:A2 *1831:A1 0.000230495
149 *1910:A2 *593:137 3.02351e-05
150 *1914:A2 *1864:A1 1.60848e-05
151 *1914:A2 *593:104 2.36876e-06
152 *1916:B2 *1917:A1 1.73125e-05
153 *1926:A2 *1926:A1 1.21774e-06
154 *1929:A2 *593:43 0
155 *1929:A2 *593:45 0
156 *1929:A2 *593:51 0
157 *2059:A2 *593:29 7.08848e-05
158 *2062:A2 *593:43 0
159 *2116:A2 *593:89 0
160 *2120:A1 *1917:A1 2.16072e-07
161 *2121:A1 *593:89 0.000145864
162 *2121:A2 *593:89 1.68643e-06
163 *2162:A2 *1779:A1 7.19036e-06
164 *2175:A2 *1864:A1 0
165 *2176:A1 *1864:A1 5.03556e-06
166 *2176:A2 *1864:A1 1.88906e-05
167 *2256:A2 *2256:A1 3.65322e-06
168 *2337:A1 *2253:A1 0
169 *39:8 *593:51 7.61387e-05
170 *40:8 *2253:A1 2.16072e-07
171 *106:8 *593:21 7.11905e-07
172 *106:8 *593:247 1.95623e-06
173 *389:33 *2253:A1 2.28197e-05
174 *391:60 *593:89 2.42701e-05
175 *391:66 *593:89 2.7613e-05
176 *391:66 *593:126 0.000225633
177 *391:68 *1910:A1 0
178 *391:68 *593:126 2.8705e-06
179 *391:68 *593:135 1.68643e-06
180 *424:33 *2253:A1 0
181 *424:37 *2253:A1 0
182 *426:47 *1864:A1 1.80128e-05
183 *426:55 *1864:A1 2.19401e-05
184 *426:55 *1914:A1 1.82068e-05
185 *426:77 *1831:A1 0
*RES
1 *1467:Z *593:4 5 
2 *593:4 *593:10 12.2143 
3 *593:10 *1901:B1 10.75 
4 *593:10 *593:21 2.96429 
5 *593:21 *593:29 45.9286 
6 *593:29 *593:35 12.1071 
7 *593:35 *593:43 43.8214 
8 *593:43 *593:45 2.28572 
9 *593:45 *593:51 38.5714 
10 *593:51 *593:53 10.4286 
11 *593:53 *593:55 5 
12 *593:55 *2256:A1 21.1786 
13 *593:55 *593:70 24.25 
14 *593:70 *593:78 37.1072 
15 *593:78 *1867:A1 5 
16 *593:78 *593:89 33.6072 
17 *593:89 *593:93 10 
18 *593:93 *1917:A1 11.75 
19 *593:93 *593:104 12.4643 
20 *593:104 *1914:A1 11.75 
21 *593:104 *1864:A1 34.7143 
22 *593:89 *593:126 23.25 
23 *593:126 *1828:B1 5 
24 *593:126 *593:135 5.75 
25 *593:135 *593:137 6.35715 
26 *593:137 *1910:A1 10.75 
27 *593:137 *1831:A1 41.0357 
28 *593:135 *1907:B1 13.8214 
29 *593:70 *1775:B1 6.67857 
30 *593:53 *2253:A1 20.75 
31 *593:51 *1779:A1 25.8571 
32 *593:45 *1929:A1 10 
33 *593:43 *1926:A1 33.2857 
34 *593:35 *1771:A1 5 
35 *593:29 *1765:B1 5 
36 *593:21 *593:247 20.25 
37 *593:247 *1822:B1 5 
38 *593:247 *1825:A1 27.1071 
39 *593:4 *1904:A1 28.3571 
*END

*D_NET *595 0.0175607
*CONN
*I *1890:A I *D OAI21_X1
*I *1811:A I *D OAI21_X1
*I *1770:A I *D OAI21_X1
*I *1824:A I *D OAI21_X1
*I *1903:A I *D OAI21_X1
*I *1927:A I *D OAI21_X1
*I *1857:A I *D AOI21_X1
*I *2254:A I *D OAI21_X1
*I *1830:A I *D OAI21_X1
*I *1909:A I *D OAI21_X1
*I *1915:A I *D OAI21_X1
*I *1865:A I *D OAI21_X1
*I *1777:A I *D OAI21_X1
*I *1785:A I *D OAI21_X1
*I *1860:A I *D OAI21_X1
*I *1469:Z O *D BUF_X1
*CAP
1 *1890:A 3.54211e-05
2 *1811:A 8.71307e-06
3 *1770:A 1.41998e-06
4 *1824:A 0
5 *1903:A 8.8404e-05
6 *1927:A 0
7 *1857:A 0
8 *2254:A 2.19832e-05
9 *1830:A 0.000131608
10 *1909:A 5.33403e-05
11 *1915:A 0
12 *1865:A 0
13 *1777:A 3.14029e-05
14 *1785:A 0.000154328
15 *1860:A 2.20398e-05
16 *1469:Z 0.000132335
17 *595:213 0.000593033
18 *595:211 0.000873651
19 *595:189 0.000239472
20 *595:166 0.0010272
21 *595:154 0.00123779
22 *595:107 0.00039203
23 *595:98 0.00047996
24 *595:89 0.000461515
25 *595:76 0.000550818
26 *595:68 0.000569853
27 *595:53 0.000429381
28 *595:47 0.000150603
29 *595:32 0.000463851
30 *595:26 0.000442196
31 *595:22 0.00021819
32 *595:16 0.00121191
33 *595:14 0.000549702
34 *595:12 0.000457087
35 *1770:A *1772:B1 8.94068e-08
36 *1770:A *876:75 5.05238e-06
37 *1777:A *1351:CK 1.52083e-06
38 *1777:A *1463:CK 5.64879e-06
39 *1777:A *866:8 3.42187e-06
40 *1777:A *1310:44 2.00032e-05
41 *1785:A *1295:134 1.48912e-05
42 *1785:A *1303:249 2.39679e-06
43 *1785:A *1303:268 0.000153547
44 *1785:A *1307:63 4.33476e-05
45 *1830:A *1830:B1 8.43215e-07
46 *1830:A *1832:A1 0.000132861
47 *1830:A *1909:B1 1.66988e-05
48 *1830:A *1911:B1 0
49 *1860:A *1452:CK 1.20695e-05
50 *1860:A *1860:B1 2.64502e-05
51 *1890:A *1890:B1 9.18275e-05
52 *1890:A *1893:B2 2.79688e-05
53 *1890:A *811:170 8.7171e-07
54 *1890:A *837:305 0
55 *1903:A *1903:B1 2.63907e-05
56 *1903:A *1905:B1 0
57 *1903:A *1905:B2 0
58 *1903:A *1906:A1 0
59 *1903:A *1906:A2 2.23415e-06
60 *1903:A *811:104 0.000119077
61 *1903:A *811:115 3.67084e-05
62 *1903:A *992:12 5.7135e-05
63 *1909:A *1909:B1 0.000119079
64 *1909:A *1911:B1 0
65 *1909:A *2129:B1 6.48216e-07
66 *1909:A *811:63 1.27666e-06
67 *595:12 *609:136 0
68 *595:12 *1280:229 3.2433e-05
69 *595:16 *1881:A1 1.70033e-05
70 *595:16 *2038:A2 0
71 *595:16 *2039:A1 0
72 *595:16 *1294:161 2.1185e-05
73 *595:16 *1294:186 4.35111e-05
74 *595:22 *1930:A2 0.000150167
75 *595:22 *1294:144 6.60887e-05
76 *595:22 *1294:161 4.51233e-06
77 *595:26 *1113:21 0
78 *595:26 *1294:144 0.000151367
79 *595:26 *1303:410 0.000104906
80 *595:32 *1452:CK 3.25463e-05
81 *595:32 *1858:B1 1.07868e-05
82 *595:32 *1860:B1 3.95309e-06
83 *595:47 *1452:CK 9.20612e-05
84 *595:47 *1858:B1 1.16801e-05
85 *595:47 *1303:275 3.11899e-06
86 *595:47 *1303:279 0.000273094
87 *595:53 *1857:B1 0.00012016
88 *595:53 *1858:A 1.77822e-05
89 *595:53 *1295:134 4.62294e-05
90 *595:53 *1303:268 0.000193447
91 *595:53 *1303:275 2.16072e-07
92 *595:68 *2255:A 0
93 *595:68 *1307:63 3.09411e-06
94 *595:68 *1307:74 5.62108e-06
95 *595:68 *1307:80 0.000271291
96 *595:76 *2123:A1 7.72537e-06
97 *595:76 *1310:42 1.26998e-05
98 *595:89 *1451:CK 1.67407e-05
99 *595:89 *2132:A1 4.87096e-06
100 *595:89 *1310:42 0.00023282
101 *595:98 *2119:A1 0
102 *595:98 *2132:A1 0
103 *595:98 *1303:755 7.66449e-06
104 *595:98 *1303:761 0.000243763
105 *595:98 *1303:769 2.39679e-06
106 *595:107 *1303:769 0.000311531
107 *595:107 *1311:53 7.77045e-05
108 *595:107 *1311:62 6.3924e-06
109 *595:166 *1772:B1 5.43152e-06
110 *595:166 *1774:A1 3.59026e-06
111 *595:166 *2067:A1 7.85075e-05
112 *595:166 *811:115 7.89435e-06
113 *595:166 *876:75 3.0781e-06
114 *595:166 *876:91 0.000815572
115 *595:166 *1113:46 2.96955e-05
116 *595:189 *1815:A2 0
117 *595:189 *1824:B1 2.75346e-06
118 *595:189 *1826:A2 3.19164e-06
119 *595:189 *1826:B1 1.34737e-05
120 *595:189 *1826:B2 1.51496e-05
121 *595:189 *1827:A1 6.67336e-06
122 *595:189 *1834:A1 0
123 *595:189 *1894:A2 0.000132863
124 *595:189 *2070:A1 9.05228e-06
125 *595:189 *811:115 3.22731e-05
126 *595:189 *811:143 0.000119434
127 *595:189 *915:12 0
128 *595:189 *992:12 0.000345282
129 *595:211 *609:136 0
130 *595:211 *609:143 0
131 *595:213 *1893:B2 5.52692e-06
132 *595:213 *2230:B1 4.42146e-05
133 *595:213 *609:156 0
134 *595:213 *609:171 0
135 *595:213 *1292:190 1.12591e-05
136 *1377:D *595:213 3.35796e-05
137 *1378:D *595:213 3.83783e-05
138 *1383:D *595:211 1.55374e-05
139 *1419:D *595:16 4.64443e-06
140 *1449:D *595:98 0
141 *1452:D *595:32 6.8089e-06
142 *1452:D *595:47 4.23376e-05
143 *1463:D *595:76 6.51157e-06
144 *1463:D *595:89 2.16072e-07
145 *1770:B2 *595:166 8.122e-06
146 *1811:B2 *595:213 2.52322e-05
147 *1909:B2 *1909:A 7.16188e-07
148 *2100:A1 *595:16 0
149 *2100:A1 *595:22 0
150 *2121:A1 *595:98 0
151 *2126:A1 *595:76 7.46544e-06
152 *2137:A2 *595:98 0
153 *2216:A2 *595:211 8.07495e-06
154 *2219:A1 *595:211 1.26998e-05
155 *2221:A2 *595:213 0
156 *2222:A *595:213 1.91498e-06
157 *2232:A2 *595:213 1.64551e-05
158 *2233:A1 *595:213 3.89107e-05
159 *2343:A1 *595:76 7.76441e-05
160 *2343:A2 *595:76 6.91187e-06
161 *2345:A2 *595:68 4.11266e-05
162 *2346:A1 *2254:A 2.35353e-05
163 *2346:A1 *595:68 6.94585e-06
164 *2346:A1 *595:76 0
165 *2346:A2 *2254:A 0
166 *2346:A2 *595:68 1.32323e-05
167 *2347:A1 *595:68 1.20555e-05
168 *58:10 *595:213 0
169 *99:8 *595:16 0
170 *132:8 *1860:A 0
171 *136:6 *595:68 0
172 *139:6 *595:98 0
173 *142:12 *1785:A 1.28122e-06
174 *378:38 *595:16 0
175 *389:23 *1785:A 3.21875e-05
176 *389:25 *595:68 0.000176296
177 *401:33 *1785:A 0
178 *401:59 *595:68 0
179 *401:59 *595:76 4.79202e-06
180 *401:61 *595:76 7.35445e-06
181 *401:68 *595:98 0
182 *403:12 *595:89 0
183 *403:12 *595:98 3.71274e-05
184 *403:14 *595:76 0
185 *403:14 *595:89 0
186 *403:59 *595:107 0
187 *459:60 *595:12 9.74498e-05
188 *459:60 *595:211 0.000345028
189 *459:68 *595:211 6.9668e-05
190 *459:68 *595:213 2.96103e-05
191 *461:12 *595:213 1.05506e-05
192 *461:25 *595:213 2.71563e-05
193 *461:67 *595:211 0
194 *461:67 *595:213 0
195 *506:8 *595:32 3.63639e-05
*RES
1 *1469:Z *595:12 31.9643 
2 *595:12 *595:14 5 
3 *595:14 *595:16 60.6786 
4 *595:16 *595:22 21.6429 
5 *595:22 *595:26 19.75 
6 *595:26 *595:32 44.4643 
7 *595:32 *1860:A 7.75 
8 *595:32 *595:47 27.9286 
9 *595:47 *595:53 18.2143 
10 *595:53 *1785:A 32.0357 
11 *595:53 *595:68 39.25 
12 *595:68 *595:76 35.7143 
13 *595:76 *1777:A 18.6429 
14 *595:76 *595:89 24.75 
15 *595:89 *1865:A 5 
16 *595:89 *595:98 33.8929 
17 *595:98 *1915:A 5 
18 *595:98 *595:107 34.75 
19 *595:107 *1909:A 17.1071 
20 *595:107 *1830:A 25.9286 
21 *595:68 *2254:A 8.85714 
22 *595:47 *1857:A 5 
23 *595:22 *1927:A 5 
24 *595:16 *595:154 28.69 
25 *595:154 *595:166 47.7064 
26 *595:166 *1903:A 24.3036 
27 *595:166 *595:189 45.2679 
28 *595:189 *1824:A 5 
29 *595:154 *1770:A 10.2857 
30 *595:12 *595:211 43.5357 
31 *595:211 *595:213 63.75 
32 *595:213 *1811:A 5.92857 
33 *595:213 *1890:A 20.6786 
*END

*D_NET *1303 0.0488321
*CONN
*I *2273:B1 I *D OAI21_X1
*I *2272:B1 I *D OAI21_X1
*I *1846:B1 I *D OAI21_X1
*I *1883:B1 I *D OAI21_X1
*I *1884:B1 I *D OAI21_X1
*I *1756:B1 I *D OAI21_X1
*I *1933:B1 I *D OAI21_X1
*I *1897:B1 I *D OAI21_X1
*I *1817:B1 I *D OAI21_X1
*I *1818:B1 I *D OAI21_X1
*I *1896:B1 I *D OAI21_X1
*I *1934:B1 I *D OAI21_X1
*I *1759:B1 I *D OAI21_X1
*I *1844:B1 I *D OAI21_X1
*I *1843:B2 I *D AOI21_X1
*I *2388:A I *D HA_X1
*I *1786:B1 I *D OAI21_X1
*I *1916:B1 I *D OAI21_X1
*I *1915:B1 I *D OAI21_X1
*I *1829:A1 I *D NOR2_X1
*I *1830:B1 I *D OAI21_X1
*I *1908:A1 I *D NOR2_X1
*I *1909:B1 I *D OAI21_X1
*I *1865:B1 I *D OAI21_X1
*I *1767:A1 I *D NOR2_X1
*I *1770:B1 I *D OAI21_X1
*I *1928:B1 I *D OAI21_X1
*I *1927:B1 I *D OAI21_X1
*I *1878:B1 I *D OAI21_X1
*I *1872:B1 I *D OAI21_X1
*I *1741:B1 I *D OAI21_X1
*I *1922:B1 I *D OAI21_X1
*I *1921:B1 I *D OAI21_X1
*I *1812:B1 I *D OAI21_X1
*I *1824:B1 I *D OAI21_X1
*I *1902:A1 I *D NOR2_X1
*I *1903:B1 I *D OAI21_X1
*I *1823:A1 I *D NOR2_X1
*I *1891:B1 I *D OAI21_X1
*I *1890:B1 I *D OAI21_X1
*I *1811:B1 I *D OAI21_X1
*I *1745:B1 I *D OAI21_X1
*I *1871:B1 I *D OAI21_X1
*I *2260:B1 I *D OAI21_X1
*I *2261:B1 I *D OAI21_X1
*I *1877:B1 I *D OAI21_X1
*I *2267:B1 I *D OAI21_X1
*I *2266:B1 I *D OAI21_X1
*I *1776:A1 I *D NOR2_X1
*I *1866:B1 I *D OAI21_X1
*I *1777:B1 I *D OAI21_X1
*I *2254:B1 I *D OAI21_X1
*I *2255:B1 I *D OAI21_X1
*I *1858:B1 I *D OAI21_X1
*I *1860:B1 I *D OAI21_X1
*I *1857:B2 I *D AOI21_X1
*I *1785:B1 I *D OAI21_X1
*I *1836:B2 I *D AOI21_X1
*I *1851:B1 I *D OAI21_X1
*I *1850:B2 I *D AOI21_X1
*I *1837:B1 I *D OAI21_X1
*I *1839:B1 I *D OAI21_X1
*I *1853:B1 I *D OAI21_X1
*I *1791:B1 I *D OAI21_X1
*I *1799:B1 I *D OAI21_X1
*I *1797:B1 I *D OAI21_X1
*I *1792:B1 I *D OAI21_X1
*I *1804:B1 I *D OAI21_X1
*I *1805:B1 I *D OAI21_X1
*I *1734:A I *D INV_X2
*I *2405:A I *D HA_X1
*I *1739:A I *D BUF_X1
*I *2653:Z O *D BUF_X4
*CAP
1 *2273:B1 0
2 *2272:B1 0
3 *1846:B1 0.000157431
4 *1883:B1 0.000236861
5 *1884:B1 0
6 *1756:B1 8.9395e-05
7 *1933:B1 0.000143016
8 *1897:B1 1.08696e-05
9 *1817:B1 8.64215e-05
10 *1818:B1 1.14583e-05
11 *1896:B1 8.46531e-06
12 *1934:B1 2.25785e-05
13 *1759:B1 0
14 *1844:B1 0
15 *1843:B2 5.31937e-05
16 *2388:A 0.00018816
17 *1786:B1 1.28585e-05
18 *1916:B1 0.000281742
19 *1915:B1 0
20 *1829:A1 5.80531e-05
21 *1830:B1 5.16703e-05
22 *1908:A1 0
23 *1909:B1 5.5872e-05
24 *1865:B1 3.0702e-05
25 *1767:A1 0.000196437
26 *1770:B1 0
27 *1928:B1 0
28 *1927:B1 0
29 *1878:B1 3.56589e-05
30 *1872:B1 1.46352e-05
31 *1741:B1 0.000101744
32 *1922:B1 0
33 *1921:B1 0.000151976
34 *1812:B1 8.15016e-06
35 *1824:B1 9.30719e-05
36 *1902:A1 0
37 *1903:B1 0.000310874
38 *1823:A1 0
39 *1891:B1 0
40 *1890:B1 5.3147e-05
41 *1811:B1 0
42 *1745:B1 1.70246e-05
43 *1871:B1 0.00014077
44 *2260:B1 0.000127313
45 *2261:B1 6.09085e-06
46 *1877:B1 0.000337299
47 *2267:B1 1.12302e-05
48 *2266:B1 0.000128583
49 *1776:A1 0
50 *1866:B1 0.000183134
51 *1777:B1 0.000157786
52 *2254:B1 2.59288e-05
53 *2255:B1 5.54953e-05
54 *1858:B1 8.2214e-05
55 *1860:B1 3.0741e-05
56 *1857:B2 0
57 *1785:B1 0
58 *1836:B2 6.18649e-05
59 *1851:B1 1.49128e-05
60 *1850:B2 0.000144271
61 *1837:B1 0
62 *1839:B1 9.39208e-05
63 *1853:B1 0.000249452
64 *1791:B1 2.74722e-05
65 *1799:B1 0
66 *1797:B1 0.000155982
67 *1792:B1 0
68 *1804:B1 0
69 *1805:B1 0.000195946
70 *1734:A 1.71316e-05
71 *2405:A 3.05964e-05
72 *1739:A 0
73 *2653:Z 0
74 *1303:1012 0.00045957
75 *1303:1006 0.000185708
76 *1303:996 0.000220156
77 *1303:940 0.000190849
78 *1303:929 0.000165012
79 *1303:925 0.000313142
80 *1303:921 0.000438958
81 *1303:908 0.000414307
82 *1303:902 0.000460348
83 *1303:893 0.000259735
84 *1303:889 0.000461958
85 *1303:885 0.000694402
86 *1303:874 0.00036097
87 *1303:859 0.000263006
88 *1303:842 0.000657742
89 *1303:795 0.000165219
90 *1303:786 0.000182088
91 *1303:769 0.000438546
92 *1303:761 0.000445678
93 *1303:755 0.000540607
94 *1303:740 0.00031985
95 *1303:712 0.000274971
96 *1303:607 0.000552402
97 *1303:601 0.00040485
98 *1303:590 7.02493e-05
99 *1303:588 0.000357968
100 *1303:582 0.000398381
101 *1303:575 7.70627e-05
102 *1303:551 0.000107383
103 *1303:547 0.000425997
104 *1303:535 0.000478936
105 *1303:533 0.000308115
106 *1303:527 0.000433785
107 *1303:508 0.000278769
108 *1303:504 0.000414605
109 *1303:480 0.000379542
110 *1303:463 0.000185932
111 *1303:461 0.000392444
112 *1303:455 0.000268646
113 *1303:434 0.000474816
114 *1303:421 0.000136839
115 *1303:410 0.000400794
116 *1303:400 0.000367014
117 *1303:392 0.000351253
118 *1303:390 0.000532807
119 *1303:379 0.000298385
120 *1303:352 0.000331783
121 *1303:348 0.000411859
122 *1303:331 0.000421355
123 *1303:318 0.000313041
124 *1303:301 0.000445817
125 *1303:279 0.000220278
126 *1303:275 0.000425661
127 *1303:268 0.000294285
128 *1303:249 0.000331171
129 *1303:239 0.000303549
130 *1303:196 0.000306627
131 *1303:192 0.000346113
132 *1303:179 0.000208739
133 *1303:160 0.000176559
134 *1303:147 0.000498832
135 *1303:136 0.00040581
136 *1303:110 0.000424924
137 *1303:108 0.000465922
138 *1303:93 0.000198273
139 *1303:85 0.000543494
140 *1303:76 0.000209453
141 *1303:55 0.000502333
142 *1303:40 0.000414817
143 *1303:23 0.00042888
144 *1303:16 0.000368147
145 *1303:10 0.000891062
146 *1303:4 0.000505118
147 *1756:B1 *1308:37 3.29362e-05
148 *1777:B1 *1464:CK 2.50753e-05
149 *1786:B1 *1306:14 2.30024e-06
150 *1797:B1 *1430:CK 6.06867e-06
151 *1797:B1 *1438:CK 0
152 *1839:B1 *1380:CK 0
153 *1843:B2 *1396:CK 3.09143e-06
154 *1846:B1 *1412:CK 3.17351e-05
155 *1846:B1 *1304:26 1.43542e-05
156 *1846:B1 *1305:25 1.05232e-05
157 *1850:B2 *1428:CK 5.23787e-05
158 *1853:B1 *1380:CK 0
159 *1853:B1 *1312:85 4.20026e-05
160 *1858:B1 *1452:CK 1.17466e-07
161 *1865:B1 *1451:CK 4.96933e-05
162 *1866:B1 *1316:60 6.92186e-06
163 *1871:B1 *1379:CK 0
164 *1883:B1 *1403:CK 0
165 *1883:B1 *1305:25 1.67775e-05
166 *1883:B1 *1305:77 0.000102246
167 *1903:B1 *1317:41 0
168 *1903:B1 *1317:45 1.91667e-07
169 *1903:B1 *1317:56 1.05408e-05
170 *2255:B1 *1360:CK 5.6849e-06
171 *1303:10 *1304:106 0
172 *1303:16 *1325:RN 0
173 *1303:16 *1326:CK 1.8643e-05
174 *1303:16 *1322:28 0
175 *1303:23 *1327:RN 0
176 *1303:23 *1322:28 0
177 *1303:55 *1406:CK 3.09411e-06
178 *1303:93 *1366:CK 4.381e-07
179 *1303:93 *1306:22 0.000132218
180 *1303:93 *1306:35 4.36705e-06
181 *1303:108 *1306:35 8.44185e-05
182 *1303:110 *1374:CK 1.83053e-06
183 *1303:110 *1306:50 0
184 *1303:110 *1306:56 0
185 *1303:136 *1374:CK 6.48216e-07
186 *1303:136 *1306:35 1.58752e-05
187 *1303:136 *1306:46 2.09871e-05
188 *1303:136 *1306:102 4.20792e-05
189 *1303:196 *1428:CK 0
190 *1303:196 *1312:60 0.000172622
191 *1303:239 *1306:14 5.72399e-05
192 *1303:239 *1306:22 4.20994e-05
193 *1303:268 *1462:CK 1.34605e-05
194 *1303:268 *1307:26 1.83288e-05
195 *1303:268 *1307:63 0
196 *1303:279 *1452:CK 8.10241e-06
197 *1303:348 *1463:CK 5.52959e-06
198 *1303:400 *1313:56 5.73959e-06
199 *1303:504 *1315:71 6.3924e-06
200 *1303:508 *1363:CK 0
201 *1303:508 *1315:71 6.65423e-06
202 *1303:547 *1319:14 7.69267e-05
203 *1303:547 *1319:25 1.59858e-05
204 *1303:588 *1319:139 0
205 *1303:607 *1421:CK 4.49246e-06
206 *1303:607 *1317:56 1.97846e-05
207 *1303:712 *1425:CK 1.2453e-05
208 *1303:712 *1316:40 0.000106626
209 *1303:769 *1449:CK 0
210 *1303:786 *1311:62 0
211 *1303:889 *1344:CK 2.07669e-05
212 *1303:908 *1308:37 2.15929e-05
213 *1303:921 *1337:CK 0.00012041
214 *1303:925 *1309:31 0
215 *1303:929 *1309:66 9.22959e-05
216 *1303:1012 *1305:42 2.37122e-06
217 *1326:D *1303:16 2.36158e-05
218 *1344:D *1303:889 6.0887e-06
219 *1366:D *1303:93 4.44885e-06
220 *1374:D *1303:108 1.66988e-05
221 *1374:D *1303:110 7.72537e-06
222 *1381:D *1303:547 7.87811e-06
223 *1389:D *1303:588 0
224 *1393:D *1934:B1 0
225 *1393:D *1303:908 0
226 *1402:D *1303:929 0
227 *1403:D *1883:B1 0
228 *1406:D *1303:55 0
229 *1407:D *1756:B1 0.000196005
230 *1420:D *1851:B1 2.03863e-06
231 *1420:D *1303:196 5.05896e-06
232 *1446:D *1303:110 4.01666e-06
233 *1452:D *1860:B1 1.51547e-06
234 *1462:D *1303:268 5.74635e-06
235 *1514:A *1303:842 0
236 *1738:A *1303:16 3.89989e-05
237 *1745:A *1741:B1 9.53714e-06
238 *1745:A *1745:B1 4.31956e-05
239 *1745:A *1303:527 1.14231e-05
240 *1748:B1 *1741:B1 4.29927e-05
241 *1748:B1 *1745:B1 5.92806e-07
242 *1748:B1 *1303:527 5.85166e-06
243 *1748:B1 *1303:533 0
244 *1756:B2 *1756:B1 2.83434e-06
245 *1759:B2 *1303:893 0
246 *1761:A1 *1756:B1 0.000310586
247 *1761:A1 *1303:908 0
248 *1772:A1 *1767:A1 7.72792e-06
249 *1772:A2 *1767:A1 6.15835e-05
250 *1772:B1 *1767:A1 7.72792e-06
251 *1774:A1 *1767:A1 3.91587e-05
252 *1775:B2 *1303:348 0
253 *1775:B2 *1303:352 5.64624e-05
254 *1780:A1 *1303:352 0.000131574
255 *1780:A1 *1303:379 3.84423e-05
256 *1782:A1 *1303:379 4.11276e-05
257 *1782:A1 *1303:390 0.000114157
258 *1783:A1 *1303:390 0.00026177
259 *1783:A1 *1303:712 0.000157025
260 *1783:A4 *1303:390 0.000106844
261 *1785:A *1303:249 2.39679e-06
262 *1785:A *1303:268 0.000153547
263 *1785:B2 *1303:249 7.18532e-06
264 *1790:A1 *1791:B1 3.73965e-06
265 *1791:A *1791:B1 2.75346e-06
266 *1791:B2 *1791:B1 8.43215e-07
267 *1792:B2 *1303:93 1.83486e-05
268 *1794:A1 *1791:B1 3.19164e-07
269 *1794:B1 *1303:93 1.11168e-06
270 *1794:B1 *1303:108 2.4059e-05
271 *1797:A *1797:B1 7.19036e-06
272 *1797:B2 *1797:B1 3.02351e-05
273 *1799:A *1797:B1 2.75346e-06
274 *1799:A *1303:110 7.72537e-06
275 *1801:B1 *1797:B1 0
276 *1805:A *1805:B1 2.75346e-06
277 *1807:B1 *1805:B1 4.33502e-05
278 *1812:A *1812:B1 0
279 *1812:A *1303:582 1.99237e-05
280 *1812:A *1303:588 1.21774e-06
281 *1812:B2 *1303:582 2.75346e-06
282 *1812:B2 *1303:588 0.000104821
283 *1814:B1 *1812:B1 1.76665e-06
284 *1814:B1 *1303:588 0
285 *1817:A *1817:B1 5.12813e-05
286 *1817:A *1303:940 0.00018676
287 *1817:B2 *1817:B1 7.16188e-07
288 *1818:A *1817:B1 6.32461e-06
289 *1818:A *1303:929 2.26129e-05
290 *1818:A *1303:940 0.00015729
291 *1818:B2 *1818:B1 8.43215e-07
292 *1820:A2 *1817:B1 9.64883e-06
293 *1823:A2 *1824:B1 1.21717e-05
294 *1823:A2 *1303:601 2.31997e-05
295 *1826:A2 *1824:B1 0
296 *1830:A *1830:B1 8.43215e-07
297 *1830:A *1909:B1 1.66988e-05
298 *1830:B2 *1830:B1 6.05817e-05
299 *1832:B1 *1830:B1 1.76665e-06
300 *1837:B2 *1303:179 2.39679e-06
301 *1839:A *1839:B1 0.000127736
302 *1839:A *1853:B1 4.98664e-05
303 *1839:B2 *1839:B1 6.0887e-06
304 *1840:A *1303:179 2.88188e-06
305 *1842:A *1303:885 3.84365e-06
306 *1843:A *2388:A 8.31741e-05
307 *1844:A *1303:874 2.75346e-06
308 *1844:A *1303:885 1.25189e-05
309 *1844:B2 *1303:859 2.53238e-05
310 *1844:B2 *1303:874 2.25089e-06
311 *1851:A *1851:B1 2.39679e-06
312 *1854:A *1850:B2 0
313 *1854:B2 *1853:B1 3.7484e-05
314 *1858:A *1858:B1 2.39679e-06
315 *1860:A *1860:B1 2.64502e-05
316 *1860:B2 *1860:B1 4.21607e-06
317 *1860:B2 *1303:268 5.10087e-06
318 *1868:B2 *1866:B1 2.14527e-05
319 *1868:B2 *1303:740 0
320 *1869:A1 *1866:B1 0.000205295
321 *1871:A *1871:B1 5.10511e-06
322 *1878:B2 *1878:B1 6.0887e-06
323 *1880:B1 *1877:B1 7.9563e-06
324 *1881:A1 *1878:B1 0
325 *1890:A *1890:B1 9.18275e-05
326 *1890:B2 *1890:B1 8.43215e-07
327 *1891:B2 *1303:575 1.21774e-06
328 *1891:B2 *1303:582 4.87096e-06
329 *1893:A2 *1890:B1 2.39679e-06
330 *1896:A *1896:B1 1.26998e-05
331 *1896:A *1303:940 0.000198626
332 *1896:B2 *1896:B1 4.9678e-06
333 *1903:A *1903:B1 2.63907e-05
334 *1907:A *1303:769 0
335 *1909:A *1909:B1 0.000119079
336 *1911:A2 *1303:769 0
337 *1911:A2 *1303:786 0
338 *1911:B1 *1909:B1 0
339 *1911:B2 *1303:769 0
340 *1913:A2 *1903:B1 1.59582e-06
341 *1913:A3 *1903:B1 0
342 *1916:B2 *1916:B1 2.75346e-06
343 *1918:A2 *1303:761 2.80752e-05
344 *1918:A2 *1303:769 0
345 *1918:B1 *1916:B1 4.31996e-06
346 *1919:A1 *1916:B1 0
347 *1921:A *1741:B1 3.56012e-06
348 *1921:A *1921:B1 2.75346e-06
349 *1921:B2 *1921:B1 1.21774e-06
350 *1922:B2 *1303:547 3.07768e-05
351 *1924:A1 *1921:B1 4.92863e-06
352 *1924:A2 *1921:B1 5.41857e-05
353 *1924:B2 *1921:B1 0
354 *1928:A *1303:392 2.39679e-06
355 *1928:A *1303:400 9.76549e-06
356 *1928:B2 *1303:400 1.10645e-05
357 *1930:B2 *1303:392 2.71958e-06
358 *1934:A *1934:B1 2.75346e-06
359 *1935:A2 *1933:B1 6.41837e-05
360 *1936:B1 *1933:B1 7.30233e-06
361 *1936:B1 *1303:921 1.95473e-05
362 *1936:B2 *1933:B1 6.63755e-05
363 *1937:A1 *1933:B1 6.84295e-05
364 *1941:A1 *2405:A 0
365 *1941:A1 *1303:23 3.14335e-05
366 *1941:A2 *1303:23 4.04973e-06
367 *1942:A *1303:10 0
368 *1943:B2 *1303:10 0
369 *1943:B2 *1303:16 1.16686e-05
370 *1943:B2 *1303:23 3.21961e-05
371 *1944:S *1303:16 1.701e-05
372 *1954:A2 *1303:893 0
373 *1960:A *1303:859 0
374 *1961:A *1303:859 0
375 *1961:B1 *2388:A 0
376 *1961:B2 *2388:A 0
377 *1963:A2 *1303:893 0
378 *1970:A2 *1756:B1 1.52083e-06
379 *1970:A2 *1303:908 3.63228e-05
380 *1971:A1 *1303:908 7.19036e-06
381 *1977:B1 *1843:B2 2.74386e-05
382 *1983:A1 *1303:908 0
383 *1983:A2 *1303:908 0
384 *1984:A2 *1303:925 3.65322e-06
385 *1985:A1 *1303:908 0
386 *1985:A2 *1933:B1 5.19786e-05
387 *1985:A2 *1303:908 0
388 *1985:A2 *1303:921 0.000119619
389 *1987:A1 *1805:B1 1.25189e-05
390 *1990:A2 *1756:B1 6.48216e-07
391 *1992:B *1805:B1 0
392 *1992:B *1303:55 5.12475e-05
393 *1994:B1 *1303:929 8.58925e-06
394 *1994:B1 *1303:940 1.90574e-06
395 *2004:A1 *1933:B1 0
396 *2004:A2 *1933:B1 4.21607e-06
397 *2027:A2 *1303:239 5.84443e-05
398 *2028:A2 *1303:392 2.05499e-05
399 *2031:A1 *1303:392 0
400 *2031:A2 *1767:A1 0
401 *2032:S *1303:110 0
402 *2035:A1 *1851:B1 0
403 *2043:A2 *1303:392 0.00010811
404 *2044:A1 *1303:400 0
405 *2044:A2 *1303:400 0
406 *2054:A1 *1850:B2 4.78136e-05
407 *2054:A1 *1851:B1 1.26998e-05
408 *2072:A1 *1853:B1 0
409 *2079:B1 *1903:B1 0
410 *2106:A1 *1866:B1 0
411 *2113:B1 *1858:B1 3.01743e-06
412 *2120:A1 *1916:B1 0
413 *2125:A2 *1777:B1 5.38618e-06
414 *2125:A2 *1303:348 0
415 *2126:A2 *1777:B1 2.39144e-05
416 *2170:A1 *1866:B1 4.16464e-05
417 *2178:A1 *1303:93 0
418 *2183:A *1303:93 0
419 *2183:B *1303:93 0
420 *2185:A *1303:588 0
421 *2185:B2 *1303:588 0
422 *2192:A1 *1303:575 1.28122e-06
423 *2202:B *1303:136 0.000192418
424 *2205:A1 *1836:B2 9.9753e-05
425 *2205:A1 *1303:192 0.000223824
426 *2206:B1 *1836:B2 5.87321e-06
427 *2219:A2 *1741:B1 2.19899e-05
428 *2224:A *1839:B1 0
429 *2227:A2 *1871:B1 3.19164e-06
430 *2228:A1 *1303:480 5.43248e-05
431 *2255:A *1303:301 0
432 *2256:A2 *1303:331 1.32323e-05
433 *2257:A1 *1303:318 6.78878e-05
434 *2257:A2 *2254:B1 2.03657e-05
435 *2257:A2 *2255:B1 0
436 *2257:A2 *1303:318 3.02981e-05
437 *2257:B1 *1303:318 0
438 *2257:B2 *1303:331 3.93825e-05
439 *2260:A *2260:B1 2.75346e-06
440 *2261:A *2261:B1 7.72537e-06
441 *2261:A *1303:463 9.05188e-05
442 *2261:A *1303:504 7.19036e-06
443 *2262:A1 *2260:B1 3.19164e-07
444 *2263:B2 *1871:B1 2.39679e-06
445 *2263:B2 *2260:B1 0.00019115
446 *2265:A1 *1877:B1 1.39839e-06
447 *2266:A *2266:B1 2.75346e-06
448 *2269:B1 *2267:B1 3.09211e-06
449 *2272:A *1846:B1 2.96272e-05
450 *2272:A *1303:1012 0.000128884
451 *2272:B2 *1303:1006 1.80284e-05
452 *2275:B1 *1303:1006 0.000342315
453 *2275:B2 *1303:1012 1.87637e-06
454 *2277:A2 *1303:421 1.39541e-05
455 *2328:A1 *2260:B1 1.66442e-05
456 *2334:A1 *1303:504 0
457 *2335:A2 *1303:461 0
458 *2343:A1 *1777:B1 2.50882e-05
459 *2343:A1 *1303:331 9.66467e-08
460 *2343:A1 *1303:348 3.62969e-06
461 *2346:A1 *1303:331 9.662e-05
462 *2357:A1 *2267:B1 1.06306e-05
463 *2369:A1 *1303:885 7.42883e-05
464 *2369:A1 *1303:889 0
465 *2370:A1 *1303:889 0
466 *2370:A2 *1303:889 0
467 *2371:A1 *1303:885 0
468 *2371:A2 *1303:889 0
469 *2378:A1 *1303:10 7.9958e-06
470 *2380:A *1303:10 0
471 *2387:B *1303:842 0
472 *2388:B *2388:A 1.36786e-05
473 *2389:A *1303:842 7.72792e-06
474 *2389:B *1303:842 7.19036e-06
475 *2653:A *1303:842 9.15668e-06
476 *42:6 *1303:582 1.15841e-05
477 *43:8 *1872:B1 2.39679e-06
478 *43:8 *1303:508 3.90891e-05
479 *47:6 *1745:B1 8.43215e-07
480 *47:6 *1303:527 0
481 *47:6 *1303:533 0
482 *63:8 *1741:B1 1.19839e-05
483 *73:8 *1933:B1 1.77822e-05
484 *79:8 *1303:908 6.91187e-06
485 *81:12 *1933:B1 8.43215e-07
486 *83:8 *1883:B1 1.58933e-05
487 *84:6 *1846:B1 1.51469e-05
488 *114:6 *1903:B1 4.38826e-05
489 *117:8 *1824:B1 0
490 *132:8 *1858:B1 1.2651e-05
491 *141:8 *1303:769 5.87765e-06
492 *145:8 *1921:B1 1.32376e-05
493 *145:8 *1303:547 7.82527e-06
494 *146:12 *1903:B1 0.000150839
495 *152:8 *1303:421 5.45406e-05
496 *152:8 *1303:434 0.000180802
497 *152:8 *1303:455 9.30171e-05
498 *152:8 *1303:480 0
499 *169:12 *2388:A 5.67661e-05
500 *376:78 *1878:B1 3.69863e-06
501 *376:78 *1303:455 1.18572e-05
502 *389:50 *1916:B1 0
503 *391:28 *1777:B1 2.96272e-05
504 *391:60 *1916:B1 0
505 *401:12 *1303:268 4.32144e-07
506 *401:33 *1303:268 1.55401e-05
507 *401:61 *1777:B1 2.61827e-06
508 *403:12 *1303:740 8.99603e-06
509 *403:12 *1303:755 4.91141e-06
510 *403:12 *1303:761 0
511 *403:14 *1303:348 1.12748e-05
512 *403:14 *1303:740 4.4211e-05
513 *403:50 *1303:761 2.49176e-05
514 *403:59 *1303:761 0
515 *424:37 *1866:B1 2.88615e-06
516 *436:14 *1303:136 0.000151311
517 *436:14 *1303:147 0.00017341
518 *436:36 *1836:B2 7.19421e-06
519 *436:36 *1303:147 7.88465e-05
520 *436:36 *1303:160 1.07633e-05
521 *436:36 *1303:179 3.43549e-05
522 *436:36 *1303:192 1.33029e-05
523 *438:17 *1303:504 0
524 *438:28 *1745:B1 1.18232e-06
525 *438:28 *1303:508 9.62051e-07
526 *438:37 *1303:533 0
527 *438:46 *1303:547 0
528 *438:46 *1303:575 0
529 *438:61 *1303:582 0
530 *448:14 *1303:147 3.25787e-05
531 *448:14 *1303:160 1.43538e-06
532 *448:14 *1303:179 4.75174e-05
533 *448:14 *1303:192 0.000183201
534 *448:36 *1836:B2 1.02238e-05
535 *461:25 *1921:B1 0
536 *461:84 *1871:B1 5.61635e-05
537 *461:92 *1871:B1 1.11435e-06
538 *461:92 *2260:B1 7.16188e-07
539 *461:92 *1303:480 3.23246e-05
540 *487:10 *1303:301 0
541 *487:10 *1303:318 0
542 *493:8 *1303:434 0
543 *493:8 *1303:480 8.3283e-05
544 *506:8 *1303:410 0.000317403
545 *506:8 *1303:421 6.33236e-05
546 *593:29 *1767:A1 0
547 *593:78 *1303:348 0
548 *593:78 *1303:352 1.61002e-06
549 *593:78 *1303:740 0
550 *593:89 *1916:B1 0
551 *593:89 *1303:740 0
552 *593:89 *1303:755 0
553 *593:126 *1303:769 0
554 *595:26 *1303:410 0.000104906
555 *595:32 *1858:B1 1.07868e-05
556 *595:32 *1860:B1 3.95309e-06
557 *595:47 *1858:B1 1.16801e-05
558 *595:47 *1303:275 3.11899e-06
559 *595:47 *1303:279 0.000273094
560 *595:53 *1303:268 0.000193447
561 *595:53 *1303:275 2.16072e-07
562 *595:98 *1303:755 7.66449e-06
563 *595:98 *1303:761 0.000243763
564 *595:98 *1303:769 2.39679e-06
565 *595:107 *1303:769 0.000311531
566 *595:189 *1824:B1 2.75346e-06
567 *596:8 *2405:A 0
568 *596:29 *1303:10 0
569 *609:14 *1303:301 0
570 *609:20 *1303:301 0
571 *609:20 *1303:318 0
572 *609:35 *1866:B1 8.73062e-05
573 *609:35 *1303:352 3.84855e-05
574 *609:35 *1303:379 1.52083e-06
575 *609:45 *1916:B1 0
576 *609:56 *1916:B1 1.21774e-06
577 *609:108 *1303:461 6.42262e-06
578 *609:123 *1303:461 0.000473346
579 *609:136 *1872:B1 4.78054e-06
580 *609:136 *1303:504 0.000152085
581 *609:143 *1303:508 3.99137e-05
582 *609:156 *1303:527 1.28122e-06
583 *609:156 *1303:533 0.000149608
584 *609:171 *1303:533 7.68094e-07
585 *609:171 *1303:547 7.41625e-05
586 *609:171 *1303:575 5.91618e-05
587 *609:171 *1303:582 2.39679e-06
588 *609:187 *1303:400 0.000201917
589 *625:32 *1303:10 0
590 *632:10 *1303:842 0
591 *633:21 *1843:B2 2.87087e-05
592 *633:100 *1303:889 0
593 *633:104 *1303:889 0
594 *633:115 *1756:B1 1.31443e-05
595 *634:161 *1303:925 0
596 *634:170 *1303:925 0
597 *636:10 *2388:A 0
598 *636:107 *1817:B1 0
599 *636:107 *1818:B1 4.9678e-06
600 *756:84 *1303:786 8.18266e-06
601 *756:84 *1303:795 3.06181e-06
602 *756:99 *1829:A1 6.67397e-06
603 *756:99 *1303:795 2.6231e-06
604 *756:122 *1303:601 6.78899e-05
605 *756:122 *1303:607 9.52084e-05
606 *811:151 *1890:B1 1.43437e-05
607 *811:151 *1303:551 1.93198e-05
608 *811:170 *1890:B1 9.21601e-06
609 *837:8 *1734:A 8.43215e-07
610 *837:8 *1303:55 3.46961e-05
611 *837:40 *1303:55 0.000139281
612 *837:76 *1303:249 0
613 *837:286 *1921:B1 7.99278e-06
614 *837:305 *1890:B1 0
615 *837:305 *1303:551 0
616 *837:485 *1933:B1 4.76429e-07
617 *837:491 *1303:925 1.86328e-06
618 *841:6 *1303:16 1.59673e-05
619 *845:46 *1303:1006 8.87096e-06
620 *845:46 *1303:1012 4.29713e-06
621 *845:54 *1303:1006 0.000300752
622 *845:74 *1303:889 2.75346e-06
623 *845:74 *1303:893 0.000114408
624 *845:74 *1303:902 1.21774e-06
625 *845:87 *1303:902 3.28283e-07
626 *845:87 *1303:925 0
627 *845:104 *1897:B1 1.25215e-05
628 *845:104 *1303:925 0.000281552
629 *845:168 *1786:B1 1.73151e-05
630 *845:168 *1303:239 0.000151502
631 *845:168 *1303:249 6.54588e-06
632 *845:187 *1303:275 0
633 *845:187 *1303:301 0
634 *866:8 *1303:352 5.84806e-05
635 *866:8 *1303:379 1.40237e-05
636 *866:8 *1303:390 5.31631e-06
637 *876:8 *1805:B1 1.11499e-05
638 *876:8 *1303:76 9.57497e-06
639 *876:8 *1303:85 0.00017263
640 *876:8 *1303:239 6.87818e-06
641 *880:16 *1777:B1 7.63212e-06
642 *884:44 *1858:B1 6.21633e-06
643 *944:8 *1843:B2 1.11168e-06
644 *948:8 *1303:249 0.00015648
645 *954:10 *1303:179 2.8284e-05
646 *968:10 *1303:390 1.02597e-05
647 *968:10 *1303:712 7.18184e-06
648 *979:8 *1878:B1 2.70833e-06
649 *979:8 *1303:455 6.04034e-05
650 *992:12 *1903:B1 1.1216e-05
651 *1021:8 *1921:B1 0.000238483
652 *1021:8 *1303:547 2.01604e-05
653 *1027:10 *1303:392 0
654 *1034:10 *1916:B1 8.13487e-05
655 *1034:10 *1303:761 2.51151e-05
656 *1040:10 *2388:A 0
657 *1040:30 *1843:B2 7.19036e-06
658 *1040:30 *1303:885 0
659 *1042:6 *1303:908 0
660 *1042:46 *1934:B1 0
661 *1042:46 *1303:908 0
662 *1061:23 *1805:B1 7.61073e-05
663 *1061:23 *1303:76 6.53488e-05
664 *1061:23 *1303:85 0.00057312
665 *1061:38 *1303:85 7.39998e-05
666 *1061:38 *1303:239 1.39047e-05
667 *1062:17 *1805:B1 4.33679e-05
668 *1074:16 *1303:55 0
669 *1075:53 *1883:B1 8.23378e-05
670 *1077:62 *1817:B1 0
671 *1088:12 *1303:93 2.4928e-06
672 *1088:38 *1851:B1 2.25089e-06
673 *1088:57 *1877:B1 0
674 *1090:52 *1767:A1 2.36611e-05
675 *1090:52 *1303:712 0
676 *1090:61 *1767:A1 2.16072e-07
677 *1100:12 *1797:B1 0
678 *1100:12 *1303:136 0
679 *1100:88 *2266:B1 2.45893e-05
680 *1111:14 *1791:B1 3.65856e-06
681 *1111:57 *1839:B1 0
682 *1111:89 *1303:410 0
683 *1113:21 *1303:410 0
684 *1113:44 *1767:A1 4.97191e-06
685 *1113:44 *1303:712 3.76717e-05
686 *1113:61 *1767:A1 6.50994e-06
687 *1120:45 *1303:10 0
688 *1120:45 *1303:842 0
689 *1280:8 *1303:16 0
690 *1280:103 *1303:23 8.72098e-07
691 *1280:103 *1303:40 7.66202e-06
692 *1280:160 *1853:B1 5.7295e-06
693 *1280:175 *1850:B2 0
694 *1280:195 *1877:B1 1.21774e-06
695 *1280:204 *1877:B1 6.14523e-05
696 *1280:221 *2261:B1 0
697 *1280:221 *1303:463 0
698 *1280:235 *1741:B1 2.40321e-06
699 *1280:329 *1846:B1 2.75346e-06
700 *1280:336 *1846:B1 0.000244145
701 *1280:336 *1883:B1 4.32144e-07
702 *1280:351 *1883:B1 0.000169837
703 *1280:370 *1756:B1 1.73151e-05
704 *1280:385 *1933:B1 1.25215e-05
705 *1292:119 *1303:392 5.77238e-05
706 *1292:119 *1303:712 1.61803e-06
707 *1294:108 *1865:B1 0.000131821
708 *1294:130 *2254:B1 0
709 *1294:130 *1303:318 0
710 *1294:144 *1303:400 9.60257e-05
711 *1295:147 *1858:B1 2.89309e-06
712 *1297:106 *1303:249 6.76399e-05
713 *1297:116 *1791:B1 5.92963e-06
714 *1297:133 *1303:136 1.59134e-05
715 *1297:133 *1303:147 6.18897e-05
716 *1297:147 *1797:B1 2.04837e-05
717 *1297:149 *1797:B1 3.17922e-05
718 *1298:80 *1777:B1 1.63266e-05
719 *1298:97 *1777:B1 1.20157e-06
720 *1298:185 *1741:B1 1.27244e-05
721 *1298:185 *1745:B1 5.61902e-05
722 *1298:196 *1741:B1 7.7493e-05
723 *1299:45 *1303:1006 5.10087e-06
724 *1300:38 *1303:23 1.50873e-06
*RES
1 *2653:Z *1303:4 5 
2 *1303:4 *1303:10 27.6786 
3 *1303:10 *1303:16 47.1786 
4 *1303:16 *1739:A 5 
5 *1303:10 *1303:23 31.4643 
6 *1303:23 *2405:A 12.75 
7 *1303:23 *1303:40 17.1071 
8 *1303:40 *1734:A 6.75 
9 *1303:40 *1303:55 39.4286 
10 *1303:55 *1805:B1 33.1072 
11 *1303:55 *1303:76 3.64286 
12 *1303:76 *1804:B1 10 
13 *1303:76 *1303:85 40.2857 
14 *1303:85 *1303:93 27.0357 
15 *1303:93 *1792:B1 10 
16 *1303:93 *1303:108 14.8929 
17 *1303:108 *1303:110 26.75 
18 *1303:110 *1797:B1 33.8214 
19 *1303:110 *1799:B1 5 
20 *1303:108 *1303:136 28.7143 
21 *1303:136 *1791:B1 12.75 
22 *1303:136 *1303:147 35.5357 
23 *1303:147 *1853:B1 39.1786 
24 *1303:147 *1303:160 1.60714 
25 *1303:160 *1839:B1 22.25 
26 *1303:160 *1303:179 20.0357 
27 *1303:179 *1837:B1 10 
28 *1303:179 *1303:192 22.9643 
29 *1303:192 *1303:196 23.75 
30 *1303:196 *1850:B2 32.5 
31 *1303:196 *1851:B1 7.25 
32 *1303:192 *1836:B2 18.7143 
33 *1303:85 *1303:239 36.9643 
34 *1303:239 *1303:249 21.3929 
35 *1303:249 *1785:B1 5 
36 *1303:249 *1303:268 45.5 
37 *1303:268 *1857:B2 5 
38 *1303:268 *1303:275 3.25 
39 *1303:275 *1303:279 21.5357 
40 *1303:279 *1860:B1 13.25 
41 *1303:279 *1858:B1 18.9286 
42 *1303:275 *1303:301 27.25 
43 *1303:301 *2255:B1 20.6786 
44 *1303:301 *1303:318 17.7857 
45 *1303:318 *2254:B1 12.9643 
46 *1303:318 *1303:331 27.75 
47 *1303:331 *1777:B1 34.7857 
48 *1303:331 *1303:348 8.75 
49 *1303:348 *1303:352 24.25 
50 *1303:352 *1866:B1 48.1429 
51 *1303:352 *1303:379 6.5 
52 *1303:379 *1776:A1 10 
53 *1303:379 *1303:390 42.5714 
54 *1303:390 *1303:392 25.75 
55 *1303:392 *1303:400 32.5357 
56 *1303:400 *1303:410 35.3214 
57 *1303:410 *2266:B1 23.75 
58 *1303:410 *1303:421 8.39286 
59 *1303:421 *2267:B1 11.3571 
60 *1303:421 *1303:434 9.75 
61 *1303:434 *1877:B1 45.8572 
62 *1303:434 *1303:455 15.75 
63 *1303:455 *1303:461 35.3572 
64 *1303:461 *1303:463 8.75 
65 *1303:463 *2261:B1 5.75 
66 *1303:463 *1303:480 24.8214 
67 *1303:480 *2260:B1 22.6071 
68 *1303:480 *1871:B1 21.6071 
69 *1303:461 *1303:504 20.25 
70 *1303:504 *1303:508 26.8572 
71 *1303:508 *1745:B1 18.7143 
72 *1303:508 *1303:527 8.35714 
73 *1303:527 *1303:533 40.6786 
74 *1303:533 *1303:535 5 
75 *1303:535 *1303:547 44.1429 
76 *1303:547 *1303:551 11.3571 
77 *1303:551 *1811:B1 10 
78 *1303:551 *1890:B1 18.1071 
79 *1303:547 *1303:575 5.75 
80 *1303:575 *1891:B1 5 
81 *1303:575 *1303:582 4.75 
82 *1303:582 *1303:588 45.3572 
83 *1303:588 *1303:590 5 
84 *1303:590 *1823:A1 5 
85 *1303:590 *1303:601 13.8929 
86 *1303:601 *1303:607 29.0714 
87 *1303:607 *1903:B1 47.1072 
88 *1303:607 *1902:A1 10 
89 *1303:601 *1824:B1 19.75 
90 *1303:582 *1812:B1 5.92857 
91 *1303:535 *1921:B1 30.9286 
92 *1303:533 *1922:B1 5 
93 *1303:527 *1741:B1 24.6429 
94 *1303:504 *1872:B1 7.17857 
95 *1303:455 *1878:B1 10.1071 
96 *1303:400 *1927:B1 5 
97 *1303:392 *1928:B1 5 
98 *1303:390 *1303:712 23.3929 
99 *1303:712 *1770:B1 5 
100 *1303:712 *1767:A1 38.7857 
101 *1303:348 *1303:740 23.75 
102 *1303:740 *1865:B1 22.0357 
103 *1303:740 *1303:755 12.25 
104 *1303:755 *1303:761 31.8929 
105 *1303:761 *1303:769 41.8572 
106 *1303:769 *1909:B1 22.7143 
107 *1303:769 *1303:786 18.4643 
108 *1303:786 *1908:A1 10 
109 *1303:786 *1303:795 5.67857 
110 *1303:795 *1830:B1 16.6786 
111 *1303:795 *1829:A1 16.3571 
112 *1303:761 *1915:B1 5 
113 *1303:755 *1916:B1 40.7857 
114 *1303:239 *1786:B1 6.75 
115 *1303:4 *1303:842 26.75 
116 *1303:842 *2388:A 39.6786 
117 *1303:842 *1303:859 20.9286 
118 *1303:859 *1843:B2 21.4286 
119 *1303:859 *1303:874 0.75 
120 *1303:874 *1844:B1 5 
121 *1303:874 *1303:885 43.6429 
122 *1303:885 *1303:889 29.75 
123 *1303:889 *1303:893 26.6786 
124 *1303:893 *1759:B1 5 
125 *1303:893 *1303:902 8.25 
126 *1303:902 *1303:908 40.75 
127 *1303:908 *1934:B1 7.17857 
128 *1303:908 *1303:921 16.1071 
129 *1303:921 *1303:925 35.25 
130 *1303:925 *1303:929 13.3929 
131 *1303:929 *1896:B1 11.25 
132 *1303:929 *1303:940 21.9643 
133 *1303:940 *1818:B1 11.25 
134 *1303:940 *1817:B1 20.7857 
135 *1303:925 *1897:B1 6.25 
136 *1303:921 *1933:B1 30.5 
137 *1303:902 *1756:B1 30.3214 
138 *1303:889 *1884:B1 5 
139 *1303:885 *1303:996 9.75 
140 *1303:996 *1303:1006 29.8214 
141 *1303:1006 *1303:1012 13.7857 
142 *1303:1012 *1883:B1 43.6072 
143 *1303:1012 *1846:B1 34.8572 
144 *1303:1006 *2272:B1 5 
145 *1303:996 *2273:B1 10 
*END

*D_NET *1320 8.55013e-05
*CONN
*I *2689:A I *D CLKBUF_X1
*I *2685:Z O *D CLKBUF_X1
*CAP
1 *2689:A 4.08084e-05
2 *2685:Z 4.08084e-05
3 *2689:A *2685:A 3.88456e-06
*RES
1 *2685:Z *2689:A 14.1786 
*END

*D_NET *5 0.00588943
*CONN
*I *1652:A2 I *D NAND2_X1
*I *1632:A2 I *D NAND2_X1
*I *2393:A I *D HA_X1
*I *1610:A2 I *D NAND2_X1
*I *2397:A I *D HA_X1
*I *1948:A I *D INV_X1
*I *2398:A I *D HA_X1
*I *1769:Z O *D BUF_X1
*CAP
1 *1652:A2 7.44562e-05
2 *1632:A2 0
3 *2393:A 0.000315483
4 *1610:A2 0.000148628
5 *2397:A 3.35922e-05
6 *1948:A 8.10175e-06
7 *2398:A 4.24501e-05
8 *1769:Z 0.000144209
9 *5:92 0.000461308
10 *5:79 0.000509336
11 *5:64 0.000425026
12 *5:49 0.000371335
13 *5:36 0.000374994
14 *5:16 0.000209851
15 *5:10 0.000282655
16 *1610:A2 *1577:B 1.91818e-05
17 *1610:A2 *14:46 0
18 *1610:A2 *677:29 1.09235e-05
19 *1652:A2 *1648:A1 1.25189e-05
20 *1652:A2 *12:16 1.71455e-06
21 *1652:A2 *12:27 1.28555e-06
22 *1652:A2 *637:64 4.90234e-05
23 *1948:A *772:14 2.52965e-06
24 *2393:A *1637:A3 0
25 *2393:A *7:74 7.19036e-06
26 *2393:A *165:24 0
27 *2397:A *634:51 6.09384e-05
28 *2397:A *648:66 2.48862e-05
29 *2398:A *13:21 2.85782e-06
30 *2398:A *195:8 3.02351e-05
31 *5:16 *1635:A3 3.90891e-05
32 *5:16 *637:64 6.64676e-05
33 *5:36 *1627:A2 2.52965e-06
34 *5:36 *1634:A1 1.69801e-05
35 *5:36 *1634:A2 3.37965e-05
36 *5:36 *1635:A2 7.66675e-07
37 *5:36 *1635:A3 3.90865e-05
38 *5:36 *2398:B 0
39 *5:36 *13:38 0
40 *5:36 *637:64 0
41 *5:36 *652:52 0
42 *5:49 *1628:A2 2.57414e-05
43 *5:49 *1630:A2 0
44 *5:49 *1635:A1 8.95998e-06
45 *5:49 *1680:A 0.000170108
46 *5:49 *13:38 2.19365e-06
47 *5:49 *192:10 0.000429371
48 *5:49 *195:8 2.96955e-05
49 *5:49 *640:47 2.59819e-05
50 *5:49 *642:51 2.91785e-06
51 *5:49 *642:61 3.22858e-06
52 *5:49 *644:73 0
53 *5:64 *1680:A 5.67578e-05
54 *5:64 *2396:B 3.02096e-05
55 *5:64 *2397:B 2.23775e-06
56 *5:64 *13:44 3.28821e-06
57 *5:64 *191:10 9.22221e-06
58 *5:64 *192:10 0.000142532
59 *5:64 *630:18 2.68294e-05
60 *5:64 *634:51 0.000112929
61 *5:64 *648:66 6.06181e-05
62 *5:79 *2281:A2 0.000297188
63 *5:79 *512:14 5.64598e-05
64 *5:92 *2285:A1 5.43932e-05
65 *5:92 *2395:B 0.000226165
66 *5:92 *180:10 0
67 *5:92 *189:8 7.92247e-05
68 *5:92 *512:14 3.82593e-05
69 *5:92 *514:12 8.1183e-06
70 *1633:A2 *5:16 1.32323e-05
71 *1647:A2 *5:10 2.21514e-07
72 *4:16 *1652:A2 7.72792e-06
73 *4:18 *1652:A2 8.02126e-05
74 *4:18 *5:16 2.20333e-05
75 *4:46 *1652:A2 3.99469e-05
*RES
1 *1769:Z *5:10 29.5 
2 *5:10 *5:16 9.92858 
3 *5:16 *5:36 40.8214 
4 *5:36 *2398:A 15.0714 
5 *5:36 *5:49 33.5 
6 *5:49 *1948:A 10.75 
7 *5:49 *5:64 33.0714 
8 *5:64 *2397:A 10.75 
9 *5:64 *5:79 34.75 
10 *5:79 *1610:A2 25.25 
11 *5:79 *5:92 26.2857 
12 *5:92 *2393:A 35.75 
13 *5:16 *1632:A2 5 
14 *5:10 *1652:A2 26.7857 
*END

*D_NET *1321 0.000398472
*CONN
*I *1945:A I *D INV_X1
*I *2686:Z O *D CLKBUF_X1
*CAP
1 *1945:A 0.000199236
2 *2686:Z 0.000199236
*RES
1 *2686:Z *1945:A 29.8572 
*END

*D_NET *1322 0.00176458
*CONN
*I *1327:RN I *D DFFR_X1
*I *1325:RN I *D DFFR_X2
*I *1326:RN I *D DFFR_X2
*I *1328:RN I *D DFFR_X1
*I *2687:Z O *D CLKBUF_X1
*CAP
1 *1327:RN 0.000127299
2 *1325:RN 0.000177565
3 *1326:RN 8.71307e-06
4 *1328:RN 5.24088e-05
5 *2687:Z 0.000173372
6 *1322:28 0.000394573
7 *1322:24 0.000456558
8 *1326:D *1325:RN 0
9 *1326:CK *1325:RN 0
10 *1525:A1 *1325:RN 4.80114e-06
11 *1738:A *1325:RN 0
12 *1738:A *1322:28 3.02372e-05
13 *2374:A3 *1327:RN 1.88535e-05
14 *2380:B *1322:24 6.85774e-07
15 *2381:B1 *1322:24 1.91954e-06
16 *2687:A *1328:RN 2.27584e-05
17 *154:8 *1328:RN 0
18 *154:8 *1322:24 0
19 *154:27 *1327:RN 0.000107581
20 *154:27 *1322:24 0
21 *202:12 *1325:RN 0
22 *1280:8 *1322:28 0.000103957
23 *1280:25 *1325:RN 8.32929e-05
24 *1300:27 *1322:24 0
25 *1303:16 *1325:RN 0
26 *1303:16 *1322:28 0
27 *1303:23 *1327:RN 0
28 *1303:23 *1322:28 0
*RES
1 *2687:Z *1328:RN 16.4286 
2 *2687:Z *1322:24 21.75 
3 *1322:24 *1322:28 29.6786 
4 *1322:28 *1326:RN 5.92857 
5 *1322:28 *1325:RN 25.25 
6 *1322:24 *1327:RN 25.9286 
*END

*D_NET *1323 0.000120354
*CONN
*I *2685:A I *D CLKBUF_X1
*I *2688:Z O *D CLKBUF_X1
*CAP
1 *2685:A 5.82345e-05
2 *2688:Z 5.82345e-05
3 *2689:A *2685:A 3.88456e-06
*RES
1 *2688:Z *2685:A 16.0357 
*END

*D_NET *1324 0.000119725
*CONN
*I *1743:A I *D BUF_X1
*I *2689:Z O *D CLKBUF_X1
*CAP
1 *1743:A 5.98626e-05
2 *2689:Z 5.98626e-05
*RES
1 *2689:Z *1743:A 16.0357 
*END

*D_NET *6 0.00574277
*CONN
*I *1629:A2 I *D NAND2_X1
*I *1560:A2 I *D NAND2_X1
*I *2408:A I *D HA_X1
*I *2392:A I *D HA_X1
*I *1611:A2 I *D NAND2_X1
*I *1465:A I *D INV_X1
*I *2407:A I *D HA_X1
*I *1768:Z O *D BUF_X1
*CAP
1 *1629:A2 8.15205e-05
2 *1560:A2 1.80023e-05
3 *2408:A 0
4 *2392:A 0.000292212
5 *1611:A2 5.2055e-05
6 *1465:A 0
7 *2407:A 0
8 *1768:Z 0.000279597
9 *6:104 0.000343744
10 *6:87 0.000373397
11 *6:52 0.00067786
12 *6:48 0.000420525
13 *6:42 0.000251864
14 *6:25 0.000204116
15 *6:16 0.000413157
16 *6:12 0.000746742
17 *1560:A2 *15:28 0
18 *1560:A2 *652:37 0
19 *1611:A2 *1614:A3 4.16195e-06
20 *1611:A2 *1614:A4 7.66675e-07
21 *1611:A2 *14:46 1.91498e-06
22 *1611:A2 *640:16 0.000106624
23 *1611:A2 *640:22 7.72792e-06
24 *1611:A2 *652:31 1.53007e-05
25 *1629:A2 *637:51 0.000150663
26 *1629:A2 *644:54 6.32318e-05
27 *2392:A *1517:A1 0.000153324
28 *2392:A *1523:A1 3.55291e-05
29 *2392:A *1577:B 0
30 *2392:A *2285:A2 1.04248e-05
31 *2392:A *2395:B 7.35445e-06
32 *2392:A *15:53 0
33 *2392:A *600:14 1.25215e-05
34 *2392:A *600:20 1.70786e-05
35 *2392:A *640:16 8.07505e-05
36 *2392:A *652:31 1.24735e-05
37 *6:16 *2278:A1 0
38 *6:16 *2409:B 0
39 *6:16 *208:10 1.21072e-05
40 *6:16 *214:17 0
41 *6:25 *2406:B 1.02238e-05
42 *6:25 *208:10 3.15734e-05
43 *6:42 *2406:B 2.67697e-05
44 *6:42 *14:35 4.45934e-05
45 *6:42 *212:8 3.51536e-06
46 *6:42 *647:20 4.24381e-05
47 *6:52 *1615:A1 1.26998e-05
48 *6:52 *7:66 4.47926e-06
49 *6:52 *15:53 6.86862e-05
50 *6:52 *212:8 0
51 *6:52 *600:14 0
52 *6:52 *629:10 0
53 *6:52 *644:14 0
54 *6:52 *644:20 0
55 *6:87 *1558:A2 0
56 *6:87 *1561:A1 2.39679e-06
57 *6:87 *1562:A1 0
58 *6:87 *1562:A4 4.76331e-06
59 *6:87 *15:22 2.75346e-06
60 *6:87 *15:28 3.90891e-05
61 *6:104 *1561:A1 5.56098e-05
62 *6:104 *1568:A1 0
63 *6:104 *1568:A2 0
64 *6:104 *1568:A3 0
65 *6:104 *15:22 5.83607e-05
66 *6:104 *644:47 0.000155868
67 *6:104 *652:48 0.000322992
68 *6:104 *677:39 9.21556e-06
*RES
1 *1768:Z *6:12 43.6786 
2 *6:12 *6:16 48 
3 *6:16 *2407:A 10 
4 *6:16 *6:25 5.67857 
5 *6:25 *1465:A 10 
6 *6:25 *6:42 25.4286 
7 *6:42 *6:48 19.75 
8 *6:48 *6:52 39.25 
9 *6:52 *1611:A2 17.7857 
10 *6:52 *2392:A 47.1786 
11 *6:42 *2408:A 5 
12 *6:12 *6:87 10.25 
13 *6:87 *1560:A2 16.6071 
14 *6:87 *6:104 45.5714 
15 *6:104 *1629:A2 24.25 
*END

*D_NET *7 0.0056454
*CONN
*I *2313:A2 I *D NAND2_X1
*I *1615:A2 I *D NAND2_X1
*I *2395:A I *D HA_X1
*I *2410:A I *D HA_X1
*I *1726:A I *D INV_X1
*I *1564:A2 I *D NAND2_X1
*I *2411:A I *D HA_X1
*I *1766:Z O *D BUF_X1
*CAP
1 *2313:A2 0.000197399
2 *1615:A2 0
3 *2395:A 0
4 *2410:A 1.99762e-05
5 *1726:A 3.81598e-05
6 *1564:A2 0
7 *2411:A 5.2998e-05
8 *1766:Z 0.000132685
9 *7:74 0.000354674
10 *7:72 0.000480655
11 *7:66 0.000360081
12 *7:51 0.000409124
13 *7:38 0.000383772
14 *7:34 0.000520876
15 *7:23 0.000187061
16 *7:12 0.000239831
17 *1726:A *1557:A1 0
18 *1726:A *1558:A1 2.74145e-06
19 *1726:A *15:28 5.54348e-05
20 *1726:A *216:8 7.19036e-06
21 *2313:A2 *2313:A1 1.68643e-06
22 *2313:A2 *2314:A 5.97904e-06
23 *2313:A2 *2314:B2 3.1962e-06
24 *2313:A2 *2318:A2 9.12627e-06
25 *2313:A2 *2319:A1 1.04314e-05
26 *2313:A2 *629:27 1.78504e-05
27 *2410:A *211:12 0
28 *2411:A *1563:A1 0
29 *2411:A *1568:A4 0
30 *2411:A *15:12 1.10223e-05
31 *2411:A *15:22 6.0887e-06
32 *7:12 *1568:A4 0
33 *7:23 *1563:A1 0
34 *7:34 *1563:A1 0
35 *7:34 *1564:A1 5.25317e-05
36 *7:34 *640:24 6.48003e-05
37 *7:34 *644:22 0
38 *7:34 *688:10 6.86795e-05
39 *7:34 *690:10 0
40 *7:38 *1565:A1 5.1203e-06
41 *7:38 *1568:A3 9.66611e-07
42 *7:38 *1571:A 4.9678e-06
43 *7:38 *1571:B2 0
44 *7:38 *216:8 2.36662e-05
45 *7:38 *642:40 0
46 *7:51 *1558:A1 8.25598e-06
47 *7:51 *2302:B2 8.72084e-07
48 *7:51 *2303:A2 0
49 *7:51 *15:28 0.000232572
50 *7:51 *15:41 0.000276594
51 *7:66 *1607:A2 1.34851e-06
52 *7:66 *1609:A1 8.06346e-05
53 *7:66 *1609:A3 4.52612e-06
54 *7:66 *1615:A1 8.43215e-07
55 *7:66 *1616:A 2.75346e-06
56 *7:66 *1616:B1 1.6777e-06
57 *7:66 *2302:B2 5.75945e-06
58 *7:66 *15:41 0.000538663
59 *7:66 *15:53 0
60 *7:66 *642:12 0
61 *7:66 *644:14 9.40545e-06
62 *7:72 *1511:A1 0.000103691
63 *7:72 *1615:A1 5.36241e-05
64 *7:72 *628:14 0
65 *7:72 *642:8 1.99111e-05
66 *7:72 *642:12 5.10087e-06
67 *7:72 *643:29 0
68 *7:72 *644:14 0.000106874
69 *7:72 *684:8 1.1613e-05
70 *7:74 *1522:A1 2.7327e-05
71 *7:74 *1559:A1 3.23723e-07
72 *7:74 *165:24 0
73 *7:74 *640:10 1.27327e-05
74 *7:74 *652:10 0.000156693
75 *7:74 *653:14 0.000210971
76 *7:74 *677:8 3.2191e-05
77 *2393:A *7:74 7.19036e-06
78 *6:52 *7:66 4.47926e-06
*RES
1 *1766:Z *7:12 27.5714 
2 *7:12 *2411:A 10.75 
3 *7:12 *7:23 10.6786 
4 *7:23 *1564:A2 10 
5 *7:23 *7:34 22.8929 
6 *7:34 *7:38 23.75 
7 *7:38 *1726:A 14.7143 
8 *7:38 *7:51 26.7143 
9 *7:51 *2410:A 11.75 
10 *7:51 *7:66 41.0714 
11 *7:66 *7:72 27.8929 
12 *7:72 *7:74 45.75 
13 *7:74 *2395:A 5 
14 *7:66 *1615:A2 5 
15 *7:34 *2313:A2 26.4286 
*END

*D_NET *8 0.00344544
*CONN
*I *2423:A I *D HA_X1
*I *1480:A I *D INV_X1
*I *2285:A2 I *D NAND2_X2
*I *1567:A2 I *D NAND2_X1
*I *1764:Z O *D BUF_X1
*CAP
1 *2423:A 0
2 *1480:A 0
3 *2285:A2 0.000174312
4 *1567:A2 3.74276e-05
5 *1764:Z 0.000202631
6 *8:41 0.000290568
7 *8:33 0.000586007
8 *8:18 0.000598773
9 *8:12 0.000294226
10 *1567:A2 *1568:A4 6.90234e-07
11 *1567:A2 *637:32 3.71852e-05
12 *2285:A2 *2286:A1 1.95492e-05
13 *2285:A2 *2286:A2 0.000313509
14 *2285:A2 *2395:B 7.19036e-06
15 *2285:A2 *235:8 1.72084e-05
16 *2285:A2 *515:8 1.72191e-05
17 *8:18 *2315:A2 0
18 *8:18 *2316:A2 9.57948e-06
19 *8:18 *2423:B 7.72537e-06
20 *8:18 *637:32 0
21 *8:33 *1567:A1 0
22 *8:33 *1594:A 0
23 *8:33 *1705:A3 0
24 *8:33 *2312:B2 0
25 *8:33 *2318:A1 5.32869e-05
26 *8:33 *2318:A3 8.28263e-05
27 *8:33 *2319:A2 6.89712e-05
28 *8:33 *2320:A2 1.71706e-05
29 *8:33 *549:8 0.000550325
30 *8:33 *672:39 0
31 *8:33 *677:29 0
32 *8:33 *684:27 0
33 *8:41 *1556:A 1.68643e-06
34 *8:41 *1556:B1 1.26998e-05
35 *8:41 *1556:B2 7.19036e-06
36 *8:41 *507:12 0
37 *8:41 *634:26 1.07067e-05
38 *8:41 *674:8 1.63523e-05
39 *2392:A *2285:A2 1.04248e-05
*RES
1 *1764:Z *8:12 35.0357 
2 *8:12 *8:18 14.7143 
3 *8:18 *1567:A2 14.9286 
4 *8:18 *8:33 62 
5 *8:33 *8:41 17.4286 
6 *8:41 *2285:A2 40.8572 
7 *8:41 *1480:A 5 
8 *8:12 *2423:A 5 
*END

*D_NET *9 0.00169732
*CONN
*I *1708:A2 I *D NAND2_X1
*I *1668:A I *D INV_X1
*I *1484:A2 I *D NOR2_X2
*I *2414:B I *D HA_X1
*I *2413:B I *D HA_X1
*I *1760:Z O *D BUF_X1
*CAP
1 *1708:A2 2.83104e-05
2 *1668:A 1.20132e-05
3 *1484:A2 2.44837e-05
4 *2414:B 0
5 *2413:B 0
6 *1760:Z 7.35969e-05
7 *9:43 8.45644e-05
8 *9:30 0.000106297
9 *9:28 0.000370767
10 *9:17 0.000395544
11 *9:8 0.000135947
12 *1484:A2 *1483:A1 1.91498e-06
13 *1484:A2 *1484:A1 7.72537e-06
14 *1668:A *221:8 4.78746e-06
15 *1708:A2 *1708:A1 2.16072e-07
16 *1708:A2 *221:8 2.24327e-06
17 *1708:A2 *221:25 3.19164e-07
18 *9:8 *219:8 1.52648e-05
19 *9:17 *219:8 5.39412e-06
20 *9:17 *219:19 2.57598e-05
21 *9:28 *1689:B1 4.57395e-05
22 *9:28 *1700:A1 0
23 *9:28 *1706:A4 0.000143487
24 *9:28 *1721:B2 8.13487e-05
25 *9:28 *164:10 1.27524e-05
26 *9:28 *219:19 6.70408e-05
27 *9:28 *652:88 0
28 *9:28 *652:97 0
29 *9:28 *712:12 1.77411e-05
30 *9:43 *2390:A 7.06703e-06
31 *9:43 *219:19 2.69895e-05
*RES
1 *1760:Z *9:8 18.3929 
2 *9:8 *2413:B 10 
3 *9:8 *9:17 7.71429 
4 *9:17 *2414:B 10 
5 *9:17 *9:28 48.6786 
6 *9:28 *9:30 3.75 
7 *9:30 *1484:A2 7.75 
8 *9:30 *9:43 16.3571 
9 *9:43 *1668:A 7.25 
10 *9:43 *1708:A2 8.67857 
*END

*D_NET *846 0.000134011
*CONN
*P reset I
*I *2688:A I *D CLKBUF_X1
*CAP
1 reset 6.70053e-05
2 *2688:A 6.70053e-05
*RES
1 reset *2688:A 24.6879 
*END

*D_NET *691 0.00188805
*CONN
*P result[0] O
*I *1574:Z O *D BUF_X1
*CAP
1 result[0] 1.09792e-05
2 *1574:Z 7.29804e-05
3 *691:12 0.000864997
4 *691:10 0.000926998
5 result[0] *1278:6 3.98405e-06
6 *691:12 *1685:A 0
7 *691:12 *796:6 0
8 result[2] result[0] 8.11333e-06
*RES
1 *1574:Z *691:10 22.7143 
2 *691:10 *691:12 88.75 
3 *691:12 result[0] 13.8279 
*END

*D_NET *666 0.00135071
*CONN
*P result[1] O
*I *1548:Z O *D BUF_X1
*CAP
1 result[1] 9.71144e-06
2 *1548:Z 0.000588808
3 *666:12 0.00059852
4 result[4] result[1] 6.31051e-06
5 result[4] *666:12 0.000147364
*RES
1 *1548:Z *666:12 49.76 
2 *666:12 result[1] 3.435 
*END

*D_NET *665 0.000446211
*CONN
*P result[2] O
*I *1547:Z O *D BUF_X1
*CAP
1 result[2] 0.000219049
2 *1547:Z 0.000219049
3 result[2] result[0] 8.11333e-06
*RES
1 *1547:Z result[2] 40.8993 
*END

*D_NET *659 0.00122948
*CONN
*P result[3] O
*I *1541:Z O *D BUF_X1
*CAP
1 result[3] 1.42916e-05
2 *1541:Z 0
3 *659:6 0.000614739
4 *659:4 0.000600447
*RES
1 *1541:Z *659:4 5 
2 *659:4 *659:6 59.75 
3 *659:6 result[3] 16.8464 
*END

*D_NET *658 0.000645071
*CONN
*P result[4] O
*I *1540:Z O *D BUF_X1
*CAP
1 result[4] 0.000245698
2 *1540:Z 0.000245698
3 result[4] result[1] 6.31051e-06
4 result[4] *666:12 0.000147364
*RES
1 *1540:Z result[4] 40.3222 
*END

*D_NET *638 0.00103913
*CONN
*P result[5] O
*I *1520:Z O *D BUF_X1
*CAP
1 result[5] 1.94076e-05
2 *1520:Z 0
3 *638:6 0.000519566
4 *638:4 0.000500159
*RES
1 *1520:Z *638:4 5 
2 *638:4 *638:6 49.75 
3 *638:6 result[5] 17.3107 
*END

*D_NET *626 0.000335623
*CONN
*P result[6] O
*I *1508:Z O *D BUF_X1
*CAP
1 result[6] 0.000167715
2 *1508:Z 0.000167715
3 result[6] data_out[5] 0
4 result[6] *1506:A 1.91667e-07
*RES
1 *1508:Z result[6] 30.8207 
*END

*D_NET *624 0.000230293
*CONN
*P result[7] O
*I *1506:Z O *D BUF_X1
*CAP
1 result[7] 0.000103596
2 *1506:Z 0.000103596
3 result[7] data_out[5] 0
4 result[7] *1334:CK 0
5 result[7] *1642:A 2.31008e-05
*RES
1 *1506:Z result[7] 28.7564 
*END

*D_NET *843 0.00125228
*CONN
*P up_down I
*I *1740:A I *D BUF_X1
*CAP
1 up_down 0.000412344
2 *1740:A 0.000136698
3 *843:17 0.000549042
4 count[0] *843:17 6.02325e-05
5 count[1] *843:17 1.7805e-05
6 *841:6 *1740:A 7.61556e-05
*RES
1 up_down *843:17 34.1821 
2 *843:17 *1740:A 21.75 
*END
