*SPEF "ieee 1481-1999"
*DESIGN "top"
*DATE "17:18:24 Monday August 03, 2026"
*VENDOR "The OpenROAD Project"
*PROGRAM "OpenROAD"
*VERSION "26Q3-904-geaaa6e36cb"
*DESIGN_FLOW "NAME_SCOPE LOCAL" "PIN_CAP NONE"
*DIVIDER /
*DELIMITER :
*BUS_DELIMITER []
*T_UNIT 1 NS
*C_UNIT 1 PF
*R_UNIT 1 OHM
*L_UNIT 1 HENRY

*NAME_MAP
*1 _000_
*2 _001_
*3 _002_
*4 _003_
*5 _004_
*6 _005_
*7 _006_
*8 _007_
*9 _008_
*10 _009_
*11 _010_
*12 _011_
*13 _012_
*14 _013_
*15 _014_
*16 _015_
*17 _016_
*18 _017_
*19 _018_
*20 _019_
*21 _020_
*22 _021_
*23 _022_
*24 _023_
*25 _024_
*26 _025_
*27 _026_
*28 _027_
*29 _028_
*30 _029_
*31 _030_
*32 _031_
*33 _032_
*34 _033_
*35 _034_
*36 _035_
*37 _036_
*38 _037_
*39 _038_
*40 _039_
*41 _040_
*42 _041_
*43 _042_
*44 _043_
*45 _044_
*46 _045_
*47 _046_
*48 _047_
*49 _048_
*50 _049_
*51 _050_
*52 _051_
*53 _052_
*54 _053_
*55 _054_
*56 _055_
*57 _056_
*58 _057_
*59 _058_
*60 _059_
*61 _060_
*62 _061_
*63 _062_
*64 _063_
*65 _064_
*66 _065_
*67 _066_
*68 _067_
*69 _068_
*70 _069_
*72 _071_
*73 _072_
*74 _073_
*75 _074_
*76 _075_
*77 _076_
*78 _077_
*79 _078_
*80 _079_
*81 _080_
*82 _081_
*83 _082_
*84 _083_
*85 _084_
*86 _085_
*87 _086_
*88 _087_
*89 _088_
*90 _089_
*91 _090_
*92 _091_
*93 _092_
*94 _093_
*96 _095_
*97 _096_
*101 _100_
*103 _102_
*105 _104_
*108 _107_
*109 _108_
*111 _110_
*112 _111_
*114 _113_
*115 _114_
*116 _115_
*117 _116_
*118 _117_
*120 _119_
*121 _120_
*122 _121_
*123 _122_
*124 _123_
*125 _124_
*126 _125_
*127 _126_
*128 _127_
*130 _129_
*131 _130_
*132 _131_
*133 _132_
*134 _133_
*135 _134_
*136 _135_
*137 _136_
*138 _137_
*139 _138_
*140 _139_
*141 _140_
*143 _142_
*144 _143_
*145 _144_
*146 _145_
*147 _146_
*148 _147_
*149 _148_
*150 _149_
*152 _151_
*153 _152_
*154 _153_
*155 _154_
*156 _155_
*157 _156_
*158 _157_
*159 _158_
*160 _159_
*161 _160_
*162 _161_
*163 _162_
*164 _163_
*165 _164_
*168 _167_
*170 _169_
*171 _170_
*172 _171_
*173 _172_
*174 _173_
*175 _174_
*176 _175_
*177 _176_
*178 _177_
*179 _178_
*180 _179_
*181 _180_
*182 _181_
*183 _182_
*185 _184_
*186 _185_
*188 _187_
*189 _188_
*190 _189_
*191 _190_
*192 _191_
*193 _192_
*195 _194_
*196 _195_
*197 _196_
*198 _197_
*199 _198_
*200 _199_
*201 _200_
*202 _201_
*203 _202_
*204 _203_
*205 _204_
*206 _205_
*207 _206_
*208 _207_
*209 _208_
*210 _209_
*211 _210_
*212 _211_
*213 _212_
*214 _213_
*215 _214_
*216 _215_
*217 _216_
*218 _217_
*219 _218_
*220 _219_
*221 _220_
*222 _221_
*223 _222_
*224 _223_
*225 _224_
*226 _225_
*227 _226_
*228 _227_
*229 _228_
*230 _229_
*231 _230_
*232 _231_
*233 _232_
*234 _233_
*235 _234_
*236 _235_
*237 _236_
*238 _237_
*239 _238_
*240 _239_
*241 _240_
*243 _242_
*244 _243_
*245 _244_
*246 _245_
*247 _246_
*248 _247_
*249 _248_
*250 _249_
*251 _250_
*253 _252_
*254 _253_
*255 _254_
*256 _255_
*257 _256_
*258 _257_
*259 _258_
*260 _259_
*261 _260_
*262 _261_
*263 _262_
*264 _263_
*265 _264_
*266 _265_
*267 _266_
*268 _267_
*269 _268_
*270 _269_
*271 _270_
*272 _271_
*273 _272_
*274 _273_
*275 _274_
*276 _275_
*277 _276_
*278 _277_
*279 _278_
*280 _279_
*281 _280_
*282 _281_
*283 _282_
*284 _283_
*285 _284_
*286 _285_
*287 _286_
*288 _287_
*289 _288_
*290 _289_
*291 _290_
*292 _291_
*293 _292_
*294 _293_
*295 _294_
*296 _295_
*297 _296_
*298 _297_
*299 _298_
*300 _299_
*301 _300_
*302 _301_
*303 _302_
*304 _303_
*305 _304_
*306 _305_
*307 _306_
*308 _307_
*309 _308_
*310 _309_
*311 _310_
*312 _311_
*313 _312_
*314 _313_
*315 _314_
*316 _315_
*317 _316_
*318 _317_
*319 _318_
*320 _319_
*321 _320_
*322 _321_
*323 _322_
*324 _323_
*325 _324_
*326 _325_
*327 _326_
*328 _327_
*329 _328_
*330 _329_
*331 _330_
*332 alu_b_w\[0\]
*333 alu_b_w\[1\]
*334 alu_b_w\[2\]
*335 alu_b_w\[3\]
*336 alu_b_w\[4\]
*337 alu_b_w\[5\]
*338 alu_b_w\[6\]
*339 alu_b_w\[7\]
*354 alu_result_out[0]
*357 alu_result_out[1]
*356 alu_result_out[2]
*95 alu_result_out[3]
*252 alu_result_out[4]
*242 alu_result_out[5]
*71 alu_result_out[6]
*194 alu_result_out[7]
*348 clk
*100 clknet_0_clk
*99 clknet_1_0__leaf_clk
*98 clknet_1_1__leaf_clk
*187 dest_out[0]
*184 dest_out[1]
*169 dest_out[2]
*167 dest_out[3]
*166 halt_out
*375 net1
*349 net10
*350 net11
*351 net12
*352 net13
*353 net14
*358 net15
*359 net16
*360 net17
*361 net18
*362 net19
*340 net2
*363 net20
*364 net21
*365 net22
*374 net23
*102 net24
*390 net25
*391 net26
*341 net3
*342 net4
*343 net5
*344 net6
*345 net7
*346 net8
*347 net9
*151 pc_out[0]
*142 pc_out[1]
*129 pc_out[2]
*119 pc_out[3]
*113 pc_out[4]
*110 pc_out[5]
*107 pc_out[6]
*106 pc_out[7]
*366 read_data1_w\[0\]
*367 read_data1_w\[1\]
*368 read_data1_w\[2\]
*369 read_data1_w\[3\]
*370 read_data1_w\[4\]
*371 read_data1_w\[5\]
*372 read_data1_w\[6\]
*373 read_data1_w\[7\]
*104 reg_write_out
*355 reset
*376 u_register_file\.reg_file\[1\]\[0\]
*377 u_register_file\.reg_file\[1\]\[1\]
*378 u_register_file\.reg_file\[1\]\[2\]
*379 u_register_file\.reg_file\[1\]\[3\]
*380 u_register_file\.reg_file\[1\]\[4\]
*381 u_register_file\.reg_file\[1\]\[5\]
*382 u_register_file\.reg_file\[1\]\[6\]
*383 u_register_file\.reg_file\[1\]\[7\]
*384 u_register_file\.reg_file\[5\]\[3\]
*385 u_register_file\.reg_file\[5\]\[4\]
*386 u_register_file\.reg_file\[7\]\[3\]
*387 u_register_file\.reg_file\[7\]\[4\]
*778 FILLER_0_103
*779 FILLER_0_111
*780 FILLER_0_115
*781 FILLER_0_120
*782 FILLER_0_144
*783 FILLER_0_146
*770 FILLER_0_21
*771 FILLER_0_29
*772 FILLER_0_33
*773 FILLER_0_35
*774 FILLER_0_62
*775 FILLER_0_67
*776 FILLER_0_71
*777 FILLER_0_73
*937 FILLER_10_1
*949 FILLER_10_118
*950 FILLER_10_127
*951 FILLER_10_142
*940 FILLER_10_15
*952 FILLER_10_158
*953 FILLER_10_166
*941 FILLER_10_19
*942 FILLER_10_21
*943 FILLER_10_31
*944 FILLER_10_43
*938 FILLER_10_5
*945 FILLER_10_60
*939 FILLER_10_7
*946 FILLER_10_74
*947 FILLER_10_80
*948 FILLER_10_82
*954 FILLER_11_1
*965 FILLER_11_105
*966 FILLER_11_124
*967 FILLER_11_145
*968 FILLER_11_161
*969 FILLER_11_165
*955 FILLER_11_30
*956 FILLER_11_43
*957 FILLER_11_49
*958 FILLER_11_51
*959 FILLER_11_64
*960 FILLER_11_72
*961 FILLER_11_79
*962 FILLER_11_81
*963 FILLER_11_86
*964 FILLER_11_91
*970 FILLER_12_1
*976 FILLER_12_103
*977 FILLER_12_117
*978 FILLER_12_119
*979 FILLER_12_124
*980 FILLER_12_129
*981 FILLER_12_160
*982 FILLER_12_164
*983 FILLER_12_166
*972 FILLER_12_30
*973 FILLER_12_44
*974 FILLER_12_66
*975 FILLER_12_68
*971 FILLER_12_9
*984 FILLER_13_1
*995 FILLER_13_106
*996 FILLER_13_122
*997 FILLER_13_130
*998 FILLER_13_138
*999 FILLER_13_160
*1000 FILLER_13_164
*1001 FILLER_13_166
*986 FILLER_13_24
*987 FILLER_13_28
*985 FILLER_13_3
*988 FILLER_13_41
*989 FILLER_13_45
*990 FILLER_13_47
*991 FILLER_13_53
*992 FILLER_13_71
*993 FILLER_13_75
*994 FILLER_13_83
*1002 FILLER_14_1
*1012 FILLER_14_107
*1004 FILLER_14_13
*1013 FILLER_14_132
*1014 FILLER_14_140
*1015 FILLER_14_144
*1005 FILLER_14_15
*1016 FILLER_14_153
*1017 FILLER_14_161
*1018 FILLER_14_165
*1006 FILLER_14_39
*1003 FILLER_14_5
*1007 FILLER_14_63
*1008 FILLER_14_73
*1009 FILLER_14_81
*1010 FILLER_14_93
*1011 FILLER_14_97
*1033 FILLER_15_112
*1034 FILLER_15_124
*1035 FILLER_15_159
*1020 FILLER_15_17
*1021 FILLER_15_21
*1022 FILLER_15_29
*1023 FILLER_15_37
*1024 FILLER_15_44
*1025 FILLER_15_48
*1026 FILLER_15_61
*1019 FILLER_15_7
*1027 FILLER_15_73
*1028 FILLER_15_76
*1029 FILLER_15_84
*1030 FILLER_15_86
*1031 FILLER_15_93
*1032 FILLER_15_97
*1036 FILLER_16_1
*1051 FILLER_16_103
*1052 FILLER_16_107
*1053 FILLER_16_125
*1038 FILLER_16_13
*1054 FILLER_16_138
*1055 FILLER_16_146
*1039 FILLER_16_23
*1040 FILLER_16_28
*1041 FILLER_16_34
*1042 FILLER_16_45
*1043 FILLER_16_61
*1044 FILLER_16_69
*1045 FILLER_16_73
*1046 FILLER_16_80
*1047 FILLER_16_84
*1037 FILLER_16_9
*1048 FILLER_16_90
*1049 FILLER_16_94
*1050 FILLER_16_96
*1056 FILLER_17_1
*1067 FILLER_17_101
*1068 FILLER_17_128
*1069 FILLER_17_144
*1070 FILLER_17_146
*1057 FILLER_17_17
*1058 FILLER_17_29
*1059 FILLER_17_33
*1060 FILLER_17_35
*1061 FILLER_17_39
*1062 FILLER_17_44
*1063 FILLER_17_59
*1064 FILLER_17_65
*1065 FILLER_17_73
*1066 FILLER_17_85
*1071 FILLER_18_1
*1077 FILLER_18_124
*1078 FILLER_18_127
*1079 FILLER_18_159
*1072 FILLER_18_36
*1073 FILLER_18_46
*1074 FILLER_18_67
*1075 FILLER_18_83
*1076 FILLER_18_97
*1080 FILLER_19_1
*1090 FILLER_19_111
*1091 FILLER_19_115
*1092 FILLER_19_120
*1082 FILLER_19_13
*1093 FILLER_19_152
*1094 FILLER_19_160
*1095 FILLER_19_164
*1096 FILLER_19_166
*1083 FILLER_19_32
*1084 FILLER_19_48
*1085 FILLER_19_56
*1086 FILLER_19_58
*1087 FILLER_19_83
*1088 FILLER_19_88
*1081 FILLER_19_9
*1089 FILLER_19_95
*784 FILLER_1_1
*798 FILLER_1_111
*799 FILLER_1_119
*800 FILLER_1_133
*801 FILLER_1_137
*802 FILLER_1_144
*803 FILLER_1_146
*786 FILLER_1_17
*787 FILLER_1_24
*788 FILLER_1_31
*789 FILLER_1_47
*790 FILLER_1_51
*791 FILLER_1_56
*792 FILLER_1_60
*793 FILLER_1_63
*794 FILLER_1_71
*795 FILLER_1_75
*796 FILLER_1_86
*785 FILLER_1_9
*797 FILLER_1_90
*1097 FILLER_20_1
*1103 FILLER_20_102
*1104 FILLER_20_134
*1105 FILLER_20_166
*1098 FILLER_20_33
*1099 FILLER_20_49
*1100 FILLER_20_53
*1101 FILLER_20_63
*1102 FILLER_20_70
*1106 FILLER_21_1
*1110 FILLER_21_129
*1111 FILLER_21_161
*1112 FILLER_21_165
*1107 FILLER_21_33
*1108 FILLER_21_65
*1109 FILLER_21_97
*804 FILLER_2_1
*815 FILLER_2_101
*816 FILLER_2_105
*817 FILLER_2_121
*818 FILLER_2_129
*819 FILLER_2_136
*820 FILLER_2_147
*821 FILLER_2_155
*822 FILLER_2_157
*823 FILLER_2_161
*824 FILLER_2_163
*806 FILLER_2_39
*807 FILLER_2_43
*808 FILLER_2_45
*805 FILLER_2_5
*809 FILLER_2_51
*810 FILLER_2_55
*811 FILLER_2_57
*812 FILLER_2_77
*813 FILLER_2_79
*814 FILLER_2_93
*825 FILLER_3_1
*835 FILLER_3_102
*836 FILLER_3_151
*837 FILLER_3_159
*838 FILLER_3_166
*826 FILLER_3_22
*827 FILLER_3_33
*828 FILLER_3_42
*829 FILLER_3_50
*830 FILLER_3_54
*831 FILLER_3_73
*832 FILLER_3_84
*833 FILLER_3_90
*834 FILLER_3_94
*849 FILLER_4_130
*850 FILLER_4_162
*851 FILLER_4_166
*839 FILLER_4_21
*840 FILLER_4_25
*841 FILLER_4_43
*842 FILLER_4_45
*843 FILLER_4_49
*844 FILLER_4_57
*845 FILLER_4_68
*846 FILLER_4_86
*847 FILLER_4_90
*848 FILLER_4_92
*852 FILLER_5_1
*866 FILLER_5_113
*854 FILLER_5_13
*867 FILLER_5_130
*855 FILLER_5_15
*868 FILLER_5_159
*869 FILLER_5_164
*870 FILLER_5_166
*856 FILLER_5_19
*857 FILLER_5_21
*858 FILLER_5_33
*859 FILLER_5_35
*860 FILLER_5_46
*861 FILLER_5_55
*862 FILLER_5_71
*863 FILLER_5_76
*864 FILLER_5_85
*853 FILLER_5_9
*865 FILLER_5_93
*871 FILLER_6_1
*885 FILLER_6_101
*886 FILLER_6_127
*887 FILLER_6_137
*888 FILLER_6_145
*872 FILLER_6_17
*873 FILLER_6_21
*874 FILLER_6_23
*875 FILLER_6_28
*876 FILLER_6_32
*877 FILLER_6_34
*878 FILLER_6_38
*879 FILLER_6_42
*880 FILLER_6_46
*881 FILLER_6_48
*882 FILLER_6_51
*883 FILLER_6_67
*884 FILLER_6_75
*889 FILLER_7_1
*901 FILLER_7_114
*902 FILLER_7_118
*891 FILLER_7_13
*903 FILLER_7_136
*904 FILLER_7_145
*892 FILLER_7_32
*893 FILLER_7_48
*894 FILLER_7_52
*895 FILLER_7_61
*896 FILLER_7_65
*897 FILLER_7_76
*898 FILLER_7_80
*899 FILLER_7_88
*890 FILLER_7_9
*900 FILLER_7_96
*905 FILLER_8_1
*914 FILLER_8_108
*915 FILLER_8_112
*906 FILLER_8_12
*916 FILLER_8_121
*917 FILLER_8_123
*918 FILLER_8_128
*919 FILLER_8_157
*920 FILLER_8_159
*921 FILLER_8_163
*907 FILLER_8_26
*908 FILLER_8_38
*909 FILLER_8_73
*910 FILLER_8_80
*911 FILLER_8_87
*912 FILLER_8_89
*913 FILLER_8_96
*931 FILLER_9_102
*932 FILLER_9_104
*933 FILLER_9_135
*934 FILLER_9_139
*935 FILLER_9_143
*936 FILLER_9_159
*922 FILLER_9_21
*923 FILLER_9_32
*924 FILLER_9_45
*925 FILLER_9_58
*926 FILLER_9_66
*927 FILLER_9_68
*928 FILLER_9_76
*929 FILLER_9_80
*930 FILLER_9_91
*745 PHY_EDGE_ROW_0_Left_22
*723 PHY_EDGE_ROW_0_Right_0
*755 PHY_EDGE_ROW_10_Left_32
*733 PHY_EDGE_ROW_10_Right_10
*756 PHY_EDGE_ROW_11_Left_33
*734 PHY_EDGE_ROW_11_Right_11
*757 PHY_EDGE_ROW_12_Left_34
*735 PHY_EDGE_ROW_12_Right_12
*758 PHY_EDGE_ROW_13_Left_35
*736 PHY_EDGE_ROW_13_Right_13
*759 PHY_EDGE_ROW_14_Left_36
*737 PHY_EDGE_ROW_14_Right_14
*760 PHY_EDGE_ROW_15_Left_37
*738 PHY_EDGE_ROW_15_Right_15
*761 PHY_EDGE_ROW_16_Left_38
*739 PHY_EDGE_ROW_16_Right_16
*762 PHY_EDGE_ROW_17_Left_39
*740 PHY_EDGE_ROW_17_Right_17
*763 PHY_EDGE_ROW_18_Left_40
*741 PHY_EDGE_ROW_18_Right_18
*764 PHY_EDGE_ROW_19_Left_41
*742 PHY_EDGE_ROW_19_Right_19
*746 PHY_EDGE_ROW_1_Left_23
*724 PHY_EDGE_ROW_1_Right_1
*765 PHY_EDGE_ROW_20_Left_42
*743 PHY_EDGE_ROW_20_Right_20
*766 PHY_EDGE_ROW_21_Left_43
*744 PHY_EDGE_ROW_21_Right_21
*747 PHY_EDGE_ROW_2_Left_24
*725 PHY_EDGE_ROW_2_Right_2
*748 PHY_EDGE_ROW_3_Left_25
*726 PHY_EDGE_ROW_3_Right_3
*749 PHY_EDGE_ROW_4_Left_26
*727 PHY_EDGE_ROW_4_Right_4
*750 PHY_EDGE_ROW_5_Left_27
*728 PHY_EDGE_ROW_5_Right_5
*751 PHY_EDGE_ROW_6_Left_28
*729 PHY_EDGE_ROW_6_Right_6
*752 PHY_EDGE_ROW_7_Left_29
*730 PHY_EDGE_ROW_7_Right_7
*753 PHY_EDGE_ROW_8_Left_30
*731 PHY_EDGE_ROW_8_Right_8
*754 PHY_EDGE_ROW_9_Left_31
*732 PHY_EDGE_ROW_9_Right_9
*395 _334_
*397 _336_
*399 _338_
*402 _341_
*403 _342_
*405 _344_
*406 _345_
*408 _347_
*409 _348_
*410 _349_
*411 _350_
*412 _351_
*413 _352_
*415 _354_
*416 _355_
*417 _356_
*418 _357_
*419 _358_
*420 _359_
*421 _360_
*422 _361_
*423 _362_
*425 _364_
*426 _365_
*427 _366_
*428 _367_
*429 _368_
*430 _369_
*431 _370_
*432 _371_
*433 _372_
*434 _373_
*435 _374_
*436 _375_
*437 _376_
*439 _378_
*440 _379_
*441 _380_
*442 _381_
*443 _382_
*444 _383_
*445 _384_
*446 _385_
*447 _386_
*449 _388_
*450 _389_
*451 _390_
*452 _391_
*453 _392_
*454 _393_
*455 _394_
*456 _395_
*457 _396_
*458 _397_
*459 _398_
*460 _399_
*461 _400_
*462 _401_
*463 _402_
*466 _405_
*468 _407_
*469 _408_
*470 _409_
*471 _410_
*472 _411_
*473 _412_
*474 _413_
*475 _414_
*476 _415_
*477 _416_
*478 _417_
*479 _418_
*480 _419_
*481 _420_
*482 _421_
*484 _423_
*485 _424_
*487 _426_
*488 _427_
*489 _428_
*490 _429_
*491 _430_
*492 _431_
*493 _432_
*495 _434_
*496 _435_
*497 _436_
*498 _437_
*499 _438_
*500 _439_
*501 _440_
*502 _441_
*503 _442_
*504 _443_
*505 _444_
*506 _445_
*507 _446_
*508 _447_
*509 _448_
*510 _449_
*511 _450_
*512 _451_
*513 _452_
*514 _453_
*515 _454_
*516 _455_
*517 _456_
*518 _457_
*519 _458_
*520 _459_
*521 _460_
*522 _461_
*523 _462_
*524 _463_
*526 _465_
*527 _466_
*528 _467_
*529 _468_
*530 _469_
*531 _470_
*532 _471_
*533 _472_
*534 _473_
*535 _474_
*536 _475_
*537 _476_
*538 _477_
*539 _478_
*540 _479_
*541 _480_
*542 _481_
*543 _482_
*544 _483_
*545 _484_
*546 _485_
*547 _486_
*548 _487_
*549 _488_
*550 _489_
*551 _490_
*552 _491_
*553 _492_
*554 _493_
*555 _494_
*556 _495_
*557 _496_
*558 _497_
*559 _498_
*560 _499_
*561 _500_
*562 _501_
*563 _502_
*564 _503_
*565 _504_
*566 _505_
*568 _507_
*569 _508_
*570 _509_
*571 _510_
*572 _511_
*573 _512_
*574 _513_
*575 _514_
*576 _515_
*577 _516_
*578 _517_
*579 _518_
*580 _519_
*581 _520_
*582 _521_
*583 _522_
*584 _523_
*585 _524_
*586 _525_
*587 _526_
*589 _528_
*590 _529_
*591 _530_
*592 _531_
*593 _532_
*594 _533_
*595 _534_
*596 _535_
*597 _536_
*598 _537_
*599 _538_
*600 _539_
*601 _540_
*602 _541_
*603 _542_
*604 _543_
*605 _544_
*606 _545_
*607 _546_
*608 _547_
*609 _548_
*610 _549_
*611 _550_
*612 _551_
*613 _552_
*614 _553_
*615 _554_
*616 _555_
*617 _556_
*618 _557_
*619 _558_
*620 _559_
*621 _560_
*622 _561_
*623 _562_
*624 _563_
*625 _564_
*626 _565_
*627 _566_
*628 _567_
*629 _568_
*630 _569_
*631 _570_
*632 _571_
*633 _572_
*634 _573_
*635 _574_
*636 _575_
*637 _576_
*638 _577_
*639 _578_
*640 _579_
*641 _580_
*642 _581_
*643 _582_
*644 _583_
*646 _585_
*647 _586_
*648 _587_
*649 _588_
*650 _589_
*651 _590_
*652 _591_
*653 _592_
*654 _593_
*655 _594_
*656 _595_
*657 _596_
*658 _597_
*659 _598_
*660 _599_
*661 _600_
*662 _601_
*663 _602_
*664 _603_
*665 _604_
*666 _605_
*667 _606_
*668 _607_
*669 _608_
*670 _609_
*671 _610_
*672 _611_
*673 _612_
*674 _613_
*675 _614_
*676 _615_
*677 _616_
*678 _617_
*679 _618_
*680 _619_
*681 _620_
*682 _621_
*683 _622_
*684 _623_
*685 _624_
*686 _625_
*687 _626_
*688 _627_
*689 _628_
*690 _629_
*394 clkbuf_0_clk
*393 clkbuf_1_0__f_clk
*392 clkbuf_1_1__f_clk
*767 clkload0
*768 hold25
*769 hold26
*694 input1
*396 max_cap24
*486 output10
*483 output11
*467 output12
*465 output13
*464 output14
*448 output15
*438 output16
*424 output17
*414 output18
*407 output19
*693 output2
*404 output20
*401 output21
*400 output22
*398 output23
*692 output3
*691 output4
*645 output5
*588 output6
*567 output7
*525 output8
*494 output9
*695 u_pc\.pc\[0\]\$_DFFE_PP0P_
*696 u_pc\.pc\[1\]\$_DFFE_PP0P_
*697 u_pc\.pc\[2\]\$_DFFE_PP0P_
*698 u_pc\.pc\[3\]\$_DFFE_PP0P_
*699 u_pc\.pc\[4\]\$_DFFE_PP0P_
*700 u_pc\.pc\[5\]\$_DFFE_PP0P_
*701 u_pc\.pc\[6\]\$_DFFE_PP0P_
*702 u_pc\.pc\[7\]\$_DFFE_PP0P_
*703 u_register_file\.reg_file\[0\]\[0\]\$_DFFE_PP0P_
*704 u_register_file\.reg_file\[0\]\[1\]\$_DFFE_PP0P_
*705 u_register_file\.reg_file\[0\]\[2\]\$_DFFE_PP0P_
*706 u_register_file\.reg_file\[0\]\[3\]\$_DFFE_PP0P_
*707 u_register_file\.reg_file\[0\]\[4\]\$_DFFE_PP0P_
*708 u_register_file\.reg_file\[0\]\[5\]\$_DFFE_PP0P_
*709 u_register_file\.reg_file\[0\]\[6\]\$_DFFE_PP0P_
*710 u_register_file\.reg_file\[0\]\[7\]\$_DFFE_PP0P_
*711 u_register_file\.reg_file\[1\]\[0\]\$_DFFE_PP0P_
*712 u_register_file\.reg_file\[1\]\[1\]\$_DFFE_PP0P_
*713 u_register_file\.reg_file\[1\]\[2\]\$_DFFE_PP0P_
*714 u_register_file\.reg_file\[1\]\[3\]\$_DFFE_PP0P_
*715 u_register_file\.reg_file\[1\]\[4\]\$_DFFE_PP0P_
*716 u_register_file\.reg_file\[1\]\[5\]\$_DFFE_PP0P_
*717 u_register_file\.reg_file\[1\]\[6\]\$_DFFE_PP0P_
*718 u_register_file\.reg_file\[1\]\[7\]\$_DFFE_PP0P_
*719 u_register_file\.reg_file\[5\]\[3\]\$_DFFE_PP0P_
*720 u_register_file\.reg_file\[5\]\[4\]\$_DFFE_PP0P_
*721 u_register_file\.reg_file\[7\]\[3\]\$_DFFE_PP0P_
*722 u_register_file\.reg_file\[7\]\[4\]\$_DFFE_PP0P_

*PORTS
alu_result_out[0] O
alu_result_out[1] O
alu_result_out[2] O
alu_result_out[3] O
alu_result_out[4] O
alu_result_out[5] O
alu_result_out[6] O
alu_result_out[7] O
clk I
dest_out[0] O
dest_out[1] O
dest_out[2] O
dest_out[3] O
halt_out O
pc_out[0] O
pc_out[1] O
pc_out[2] O
pc_out[3] O
pc_out[4] O
pc_out[5] O
pc_out[6] O
pc_out[7] O
reg_write_out O
reset I

*D_NET *1 0.00615077
*CONN
*I *561:A1 I *D NOR2_X1
*I *617:B2 I *D OAI21_X1
*I *432:A2 I *D NOR2_X1
*I *517:B I *D MUX2_X1
*I *497:B2 I *D OAI21_X1
*I *548:A1 I *D AND4_X1
*I *566:A1 I *D NOR2_X1
*I *482:A1 I *D NOR2_X1
*I *417:A1 I *D NAND2_X1
*I *534:B2 I *D OAI21_X2
*I *543:A1 I *D AND4_X1
*I *572:B2 I *D AOI22_X1
*I *399:A I *D INV_X2
*I *488:A2 I *D OR2_X4
*I *435:A2 I *D AND2_X1
*I *695:QN O *D DFFR_X1
*CAP
1 *561:A1 0.000131161
2 *617:B2 2.35992e-05
3 *432:A2 0
4 *517:B 0
5 *497:B2 2.47197e-05
6 *548:A1 0
7 *566:A1 8.31733e-06
8 *482:A1 0.000229579
9 *417:A1 4.82248e-06
10 *534:B2 6.05889e-05
11 *543:A1 0
12 *572:B2 4.72128e-05
13 *399:A 9.51903e-05
14 *488:A2 0
15 *435:A2 0
16 *695:QN 4.96768e-05
17 *1:157 0.000309247
18 *1:98 0.000308742
19 *1:87 0.00013493
20 *1:85 6.39934e-05
21 *1:81 8.83693e-05
22 *1:74 0.000210625
23 *1:70 0.000231612
24 *1:59 0.000135586
25 *1:40 0.000189622
26 *1:31 0.000121329
27 *1:22 0.000130856
28 *1:18 9.09536e-05
29 *1:14 9.23247e-05
30 *1:6 0.00025008
31 *399:A *412:A2 0
32 *399:A *532:B2 0
33 *399:A *538:C2 1.09316e-05
34 *399:A *101:68 6.70982e-05
35 *399:A *112:65 2.2113e-05
36 *399:A *120:32 5.16574e-05
37 *399:A *128:10 6.76399e-05
38 *399:A *361:126 2.20691e-05
39 *417:A1 *227:6 3.09411e-06
40 *417:A1 *228:28 7.72792e-06
41 *482:A1 *428:B2 4.55949e-09
42 *482:A1 *484:A 2.71958e-06
43 *482:A1 *484:B1 1.26998e-05
44 *482:A1 *484:B2 1.51e-06
45 *482:A1 *484:C2 4.88571e-05
46 *482:A1 *492:A2 4.62991e-06
47 *482:A1 *542:B 2.8946e-05
48 *482:A1 *549:C2 0.000124118
49 *482:A1 *682:A 1.33195e-05
50 *482:A1 *6:20 3.22565e-07
51 *482:A1 *100:39 5.83831e-07
52 *482:A1 *109:44 1.60598e-05
53 *482:A1 *122:16 1.68066e-06
54 *482:A1 *157:68 4.74346e-05
55 *482:A1 *182:65 0.000178148
56 *482:A1 *182:90 6.6958e-06
57 *497:B2 *497:A 0.000100912
58 *497:B2 *498:A2 8.97301e-05
59 *497:B2 *500:A 2.08098e-06
60 *534:B2 *417:A2 1.69098e-05
61 *534:B2 *509:B2 0.000165177
62 *534:B2 *565:S 6.57857e-05
63 *534:B2 *100:39 8.46879e-07
64 *534:B2 *109:44 6.53631e-06
65 *534:B2 *224:25 3.98473e-05
66 *561:A1 *552:A3 7.54346e-07
67 *561:A1 *554:A2 5.33968e-05
68 *561:A1 *556:A 6.76378e-05
69 *561:A1 *589:A2 1.11989e-07
70 *561:A1 *589:B1 1.52538e-05
71 *561:A1 *614:A2 5.57603e-05
72 *561:A1 *618:B1 2.4406e-05
73 *561:A1 *618:C1 2.97011e-05
74 *561:A1 *618:C2 2.11368e-05
75 *561:A1 *138:51 2.47678e-05
76 *561:A1 *232:23 8.56664e-06
77 *561:A1 *238:10 8.05465e-06
78 *561:A1 *278:16 7.85295e-06
79 *561:A1 *381:21 0
80 *561:A1 *383:65 2.08098e-06
81 *566:A1 *566:A2 5.33113e-06
82 *566:A1 *573:A1 0
83 *566:A1 *361:184 3.09411e-06
84 *572:B2 *412:A1 3.47903e-06
85 *572:B2 *424:A 4.66354e-05
86 *572:B2 *499:A3 8.43215e-07
87 *572:B2 *532:A 2.39679e-06
88 *572:B2 *532:B1 1.68643e-06
89 *572:B2 *571:A2 2.08416e-06
90 *572:B2 *572:B1 2.39679e-06
91 *572:B2 *216:12 0
92 *617:B2 *616:A1 2.75346e-06
93 *617:B2 *617:B1 1.21774e-06
94 *617:B2 *618:B1 1.66988e-05
95 *617:B2 *618:B2 1.60038e-06
96 *617:B2 *618:C2 1.28195e-05
97 *617:B2 *275:8 2.72171e-06
98 *617:B2 *277:12 5.11849e-06
99 *1:6 *102:124 8.30282e-06
100 *1:6 *102:132 0
101 *1:6 *383:31 1.20183e-05
102 *1:14 *414:A 6.32461e-06
103 *1:14 *432:A1 7.9624e-06
104 *1:14 *698:D 3.00829e-05
105 *1:14 *361:21 1.02238e-05
106 *1:14 *361:36 9.55854e-06
107 *1:14 *383:31 4.6613e-07
108 *1:18 *432:A1 1.21774e-06
109 *1:18 *517:A 2.75346e-06
110 *1:18 *577:A1 6.38328e-07
111 *1:18 *359:36 6.38784e-06
112 *1:18 *361:50 1.27666e-06
113 *1:18 *383:31 1.00571e-05
114 *1:22 *436:B1 0
115 *1:22 *581:A1 3.01743e-06
116 *1:22 *695:D 3.07768e-05
117 *1:22 *209:8 9.24246e-06
118 *1:22 *358:21 3.01743e-06
119 *1:22 *358:40 1.67051e-05
120 *1:22 *361:50 8.03866e-05
121 *1:22 *361:72 2.4656e-05
122 *1:22 *361:85 2.49497e-05
123 *1:31 *489:A 0
124 *1:31 *489:B2 1.88334e-06
125 *1:31 *581:A1 4.96388e-05
126 *1:31 *195:19 4.12911e-06
127 *1:31 *361:85 0.000133403
128 *1:40 *415:A1 0.000104501
129 *1:40 *489:B2 3.47226e-05
130 *1:40 *538:B1 1.36811e-05
131 *1:40 *112:65 4.12796e-06
132 *1:40 *195:19 1.90574e-06
133 *1:59 *498:A1 8.79186e-06
134 *1:59 *531:B1 9.43832e-05
135 *1:59 *532:A 7.06488e-06
136 *1:59 *533:A 4.12796e-06
137 *1:59 *538:B1 2.48069e-05
138 *1:59 *572:A2 9.9131e-06
139 *1:59 *360:195 0.000103795
140 *1:59 *360:206 2.96955e-05
141 *1:59 *361:214 3.691e-06
142 *1:70 *497:A 1.72426e-05
143 *1:70 *500:A 8.817e-06
144 *1:70 *533:A 6.32461e-06
145 *1:70 *360:206 1.2203e-05
146 *1:70 *360:223 5.42208e-05
147 *1:74 *412:A2 0
148 *1:74 *477:A2 3.56012e-06
149 *1:74 *479:A1 1.36734e-05
150 *1:74 *479:A2 5.44403e-06
151 *1:74 *498:A2 8.44023e-06
152 *1:74 *499:A1 2.39679e-06
153 *1:74 *499:A2 5.91521e-06
154 *1:74 *499:A3 7.67361e-06
155 *1:74 *500:A 4.30918e-06
156 *1:74 *535:A1 0
157 *1:74 *535:A2 1.18232e-06
158 *1:74 *542:S 0
159 *1:74 *565:B 0
160 *1:74 *604:A2 4.78054e-06
161 *1:74 *101:99 0
162 *1:74 *101:107 2.93638e-05
163 *1:74 *219:14 6.34587e-05
164 *1:81 *548:A2 4.78819e-05
165 *1:81 *565:B 0
166 *1:81 *101:107 2.75346e-06
167 *1:85 *541:A1 1.39839e-06
168 *1:85 *565:B 2.87703e-06
169 *1:85 *566:A2 7.19036e-06
170 *1:85 *224:8 2.42694e-06
171 *1:85 *224:25 6.0876e-06
172 *1:85 *241:10 7.09711e-06
173 *1:85 *361:184 5.55955e-06
174 *1:98 *417:A2 2.99128e-05
175 *1:98 *100:39 6.25429e-06
176 *1:98 *109:44 2.47896e-06
177 *1:98 *122:16 2.26991e-07
178 *1:98 *224:25 3.74027e-05
179 *1:157 dest_out[1] 7.10056e-06
180 *1:157 *405:A 7.18412e-06
181 *1:157 *483:A 1.39839e-06
182 *1:157 *618:B1 3.08967e-05
183 *1:157 *618:B2 2.05937e-05
184 *1:157 *626:A2 4.12459e-06
185 *1:157 *627:A2 2.16072e-07
186 *1:157 *102:132 0
187 *1:157 *272:16 2.83077e-06
188 *1:157 *274:12 1.82068e-05
189 *1:157 *277:12 1.87369e-06
190 *1:157 *361:8 7.09501e-06
191 *1:157 *383:31 1.50235e-05
*RES
1 *695:QN *1:6 10.75 
2 *1:6 *1:14 16.75 
3 *1:14 *1:18 5.67857 
4 *1:18 *1:22 13.3929 
5 *1:22 *435:A2 10 
6 *1:22 *1:31 13.1429 
7 *1:31 *488:A2 10 
8 *1:31 *1:40 7.03572 
9 *1:40 *399:A 34.1429 
10 *1:40 *1:59 11.1071 
11 *1:59 *572:B2 15.75 
12 *1:59 *1:70 4.32143 
13 *1:70 *1:74 25.25 
14 *1:74 *543:A1 5 
15 *1:74 *1:81 4.75 
16 *1:81 *1:85 6.17857 
17 *1:85 *1:87 5 
18 *1:87 *534:B2 20.4286 
19 *1:87 *1:98 8.39286 
20 *1:98 *417:A1 10.75 
21 *1:98 *482:A1 41.1072 
22 *1:85 *566:A1 6.67857 
23 *1:81 *548:A1 5 
24 *1:70 *497:B2 15.6786 
25 *1:18 *517:B 5 
26 *1:14 *432:A2 5 
27 *1:6 *1:157 22.75 
28 *1:157 *617:B2 13.5357 
29 *1:157 *561:A1 29.3929 
*END

*D_NET *2 0.000231146
*CONN
*I *577:A2 I *D NAND2_X1
*I *696:QN O *D DFFR_X1
*CAP
1 *577:A2 5.20575e-05
2 *696:QN 5.20575e-05
3 *577:A2 *518:A1 3.83757e-05
4 *577:A2 *518:A2 4.18301e-05
5 *577:A2 *519:A1 3.19164e-07
6 *577:A2 *577:A1 3.69909e-05
7 *577:A2 *359:8 9.5153e-06
*RES
1 *696:QN *577:A2 27.8929 
*END

*D_NET *3 0.00185045
*CONN
*I *665:A I *D FA_X1
*I *492:B2 I *D AOI222_X1
*I *676:A I *D HA_X1
*I *704:QN O *D DFFR_X1
*CAP
1 *665:A 1.86327e-05
2 *492:B2 0
3 *676:A 0.000174248
4 *704:QN 0.000156933
5 *3:20 0.000245318
6 *3:12 0.000246637
7 *665:A *493:A1 1.94479e-06
8 *665:A *657:S 1.21774e-06
9 *665:A *665:CI 0
10 *665:A *298:87 3.19164e-06
11 *676:A *479:A1 2.39679e-06
12 *676:A *484:C2 1.76415e-05
13 *676:A *491:A1 2.25089e-06
14 *676:A *492:A2 3.22834e-06
15 *676:A *492:B1 3.22834e-06
16 *676:A *539:B2 3.53389e-05
17 *676:A *539:C1 8.34049e-06
18 *676:A *540:A 6.3642e-05
19 *676:A *676:B 3.02372e-05
20 *676:A *686:B 3.81845e-05
21 *676:A *687:B 1.87637e-06
22 *676:A *43:12 4.29819e-05
23 *676:A *57:8 5.36378e-05
24 *676:A *128:10 4.62991e-06
25 *676:A *128:26 1.18168e-05
26 *676:A *182:90 2.12604e-05
27 *676:A *223:8 1.94663e-05
28 *676:A *340:16 0
29 *676:A *366:16 6.32461e-06
30 *676:A *366:18 4.14348e-05
31 *3:12 *493:A1 1.51547e-06
32 *3:12 *502:A2 7.62294e-06
33 *3:12 *647:S 1.51278e-06
34 *3:12 *665:CI 0
35 *3:12 *714:CK 0
36 *3:12 *98:18 0
37 *3:12 *341:23 0
38 *3:12 *367:10 0.000323106
39 *3:12 *367:25 7.85655e-05
40 *3:12 *379:8 0
41 *3:20 *492:A1 7.0096e-06
42 *3:20 *492:A2 3.47345e-05
43 *3:20 *492:B1 5.20596e-06
44 *3:20 *544:B2 0
45 *3:20 *665:B 4.21876e-06
46 *3:20 *157:68 0
47 *3:20 *182:90 4.32144e-07
48 *3:20 *367:25 0.000130486
*RES
1 *704:QN *3:12 37.5357 
2 *3:12 *3:20 20.2857 
3 *3:20 *676:A 43.2143 
4 *3:20 *492:B2 5 
5 *3:12 *665:A 7.25 
*END

*D_NET *4 0.000596731
*CONN
*I *569:A I *D INV_X1
*I *665:B I *D FA_X1
*I *568:Z O *D MUX2_X1
*CAP
1 *569:A 2.52212e-05
2 *665:B 3.72938e-05
3 *568:Z 5.71874e-05
4 *4:10 0.000119702
5 *569:A *511:A 0
6 *569:A *657:S 0
7 *569:A *128:26 3.11854e-05
8 *665:B *492:A1 1.52083e-06
9 *665:B *544:B2 8.14241e-05
10 *665:B *128:26 1.25189e-05
11 *4:10 *542:A 0
12 *4:10 *543:A4 8.47972e-06
13 *4:10 *544:B2 0.000166938
14 *4:10 *6:20 5.10396e-05
15 *3:20 *665:B 4.21876e-06
*RES
1 *568:Z *4:10 24.0714 
2 *4:10 *665:B 20.5714 
3 *4:10 *569:A 8.25 
*END

*D_NET *5 0.000355564
*CONN
*I *427:A I *D INV_X1
*I *665:CI I *D FA_X1
*I *686:CO O *D HA_X1
*CAP
1 *427:A 3.61558e-05
2 *665:CI 0.000104799
3 *686:CO 6.86433e-05
4 *427:A *428:B1 0
5 *427:A *492:A2 4.37043e-05
6 *427:A *128:26 1.73951e-05
7 *665:CI *492:A1 5.58442e-05
8 *665:CI *493:A1 0
9 *665:CI *502:A3 1.32732e-05
10 *665:CI *657:S 0
11 *665:CI *128:26 1.57486e-05
12 *665:A *665:CI 0
13 *3:12 *665:CI 0
*RES
1 *686:CO *665:CI 18.8929 
2 *665:CI *427:A 15.1786 
*END

*D_NET *6 0.0018457
*CONN
*I *444:B1 I *D OAI21_X1
*I *503:B I *D XNOR2_X1
*I *665:CO O *D FA_X1
*CAP
1 *444:B1 0.00017507
2 *503:B 0
3 *665:CO 0.000416823
4 *6:20 0.000591893
5 *444:B1 *430:B2 4.32144e-07
6 *444:B1 *444:A 0
7 *444:B1 *444:B2 3.90891e-05
8 *444:B1 *445:B1 1.67775e-05
9 *444:B1 *445:B2 1.36797e-05
10 *444:B1 *504:B2 6.56185e-06
11 *444:B1 *681:A 1.55006e-06
12 *444:B1 *681:B 0
13 *444:B1 *688:A 3.1962e-06
14 *444:B1 *48:16 3.87077e-05
15 *444:B1 *55:8 0
16 *444:B1 *62:12 5.25005e-06
17 *444:B1 *63:21 0
18 *444:B1 *149:14 6.54588e-06
19 *444:B1 *150:20 0.000119071
20 *444:B1 *369:73 5.95143e-05
21 *6:20 *492:A1 4.89603e-05
22 *6:20 *492:A2 1.3688e-06
23 *6:20 *543:A4 1.71736e-05
24 *6:20 *549:C1 3.21566e-05
25 *6:20 *681:A 8.17855e-06
26 *6:20 *115:60 1.34729e-05
27 *6:20 *133:18 3.88171e-05
28 *6:20 *368:74 9.44475e-06
29 *6:20 *370:14 1.16229e-06
30 *6:20 *370:29 0.000129444
31 *482:A1 *6:20 3.22565e-07
32 *4:10 *6:20 5.10396e-05
*RES
1 *665:CO *6:20 44.7143 
2 *6:20 *503:B 5 
3 *6:20 *444:B1 30.4643 
*END

*D_NET *7 0.000121349
*CONN
*I *493:A1 I *D OR2_X1
*I *665:S O *D FA_X1
*CAP
1 *493:A1 5.20119e-05
2 *665:S 5.20119e-05
3 *493:A1 *502:A1 1.21774e-06
4 *493:A1 *657:S 0
5 *493:A1 *298:87 1.20089e-05
6 *493:A1 *341:8 6.38328e-07
7 *665:A *493:A1 1.94479e-06
8 *665:CI *493:A1 0
9 *3:12 *493:A1 1.51547e-06
*RES
1 *665:S *493:A1 15.6071 
*END

*D_NET *8 0.000106423
*CONN
*I *682:B I *D HA_X1
*I *569:ZN O *D INV_X1
*CAP
1 *682:B 3.72069e-05
2 *569:ZN 3.72069e-05
3 *682:B *511:S 2.73661e-05
4 *682:B *128:26 4.64348e-06
*RES
1 *569:ZN *682:B 14.3571 
*END

*D_NET *9 0.000373542
*CONN
*I *466:B2 I *D AOI22_X1
*I *666:A I *D HA_X1
*I *709:QN O *D DFFR_X1
*CAP
1 *466:B2 4.61598e-05
2 *666:A 0
3 *709:QN 5.02233e-05
4 *9:8 9.63831e-05
5 *466:B2 *463:A2 0
6 *466:B2 *466:A1 1.43238e-06
7 *466:B2 *466:B1 2.75346e-06
8 *466:B2 *468:B2 9.34426e-06
9 *466:B2 *470:A2 3.28688e-05
10 *466:B2 *603:A 0
11 *466:B2 *603:B1 3.00797e-05
12 *9:8 *468:B2 2.2331e-05
13 *9:8 *603:B1 8.19658e-05
14 *9:8 *299:82 0
15 *9:8 *346:12 0
*RES
1 *709:QN *9:8 17.0357 
2 *9:8 *666:A 10 
3 *9:8 *466:B2 16.3571 
*END

*D_NET *10 0.000164147
*CONN
*I *624:A1 I *D AOI22_X1
*I *666:B I *D HA_X1
*I *564:ZN O *D INV_X1
*CAP
1 *624:A1 1.81763e-05
2 *666:B 3.64277e-05
3 *564:ZN 5.4604e-05
4 *624:A1 *624:A2 2.73593e-05
5 *624:A1 *338:55 2.25658e-05
6 *666:B *470:A2 0
7 *666:B *603:A 5.01358e-06
*RES
1 *564:ZN *666:B 13.6786 
2 *564:ZN *624:A1 12.75 
*END

*D_NET *11 1.8067e-05
*CONN
*I *463:A1 I *D OR2_X1
*I *666:CO O *D HA_X1
*CAP
1 *463:A1 7.99058e-06
2 *666:CO 7.99058e-06
3 *463:A1 *466:A1 0
4 *463:A1 *466:B1 0
5 *463:A1 *470:A2 2.08582e-06
*RES
1 *666:CO *463:A1 10.9286 
*END

*D_NET *12 0.000289202
*CONN
*I *468:B2 I *D AOI22_X1
*I *666:S O *D HA_X1
*CAP
1 *468:B2 0.000103957
2 *666:S 0.000103957
3 *468:B2 *462:B2 0
4 *468:B2 *466:A2 1.25603e-06
5 *468:B2 *468:B1 1.0303e-05
6 *468:B2 *603:B1 1.39341e-05
7 *468:B2 *128:55 1.38153e-05
8 *468:B2 *299:82 0
9 *468:B2 *371:61 1.0303e-05
10 *466:B2 *468:B2 9.34426e-06
11 *9:8 *468:B2 2.2331e-05
*RES
1 *666:S *468:B2 32.1071 
*END

*D_NET *13 0.000180944
*CONN
*I *468:A1 I *D AOI22_X1
*I *667:CO O *D HA_X1
*CAP
1 *468:A1 4.32636e-05
2 *667:CO 4.32636e-05
3 *468:A1 *455:A 2.61474e-06
4 *468:A1 *468:A2 5.38636e-06
5 *468:A1 *468:B1 1.23486e-05
6 *468:A1 *667:B 3.21681e-05
7 *468:A1 *372:65 4.18985e-05
*RES
1 *667:CO *468:A1 26.3929 
*END

*D_NET *14 0.000690697
*CONN
*I *668:A I *D HA_X1
*I *449:B I *D MUX2_X1
*I *708:QN O *D DFFR_X1
*CAP
1 *668:A 0
2 *449:B 5.26588e-05
3 *708:QN 0.000158359
4 *14:10 0.000211018
5 *449:B *452:A1 0
6 *449:B *452:B1 1.61803e-06
7 *449:B *452:B2 8.43215e-07
8 *449:B *15:14 1.8707e-05
9 *14:10 *600:S 0
10 *14:10 *601:A2 0.000115158
11 *14:10 *602:B1 5.86034e-05
12 *14:10 *125:14 1.58275e-05
13 *14:10 *345:12 3.39527e-06
14 *14:10 *345:27 8.70107e-07
15 *14:10 *373:14 3.39795e-05
16 *14:10 *373:85 1.96586e-05
*RES
1 *708:QN *14:10 35.6072 
2 *14:10 *449:B 10.6786 
3 *14:10 *668:A 5 
*END

*D_NET *15 0.000783635
*CONN
*I *559:A I *D INV_X1
*I *668:B I *D HA_X1
*I *558:ZN O *D AND2_X1
*CAP
1 *559:A 0.000135991
2 *668:B 0
3 *558:ZN 0.000112256
4 *15:14 0.000248247
5 *559:A *463:A2 8.09776e-06
6 *559:A *466:A2 1.7419e-05
7 *559:A *470:A2 0
8 *559:A *470:A3 5.86542e-06
9 *559:A *470:A4 4.02744e-05
10 *559:A *667:B 0
11 *559:A *371:61 7.90084e-05
12 *559:A *371:76 2.27002e-05
13 *15:14 *452:A1 0
14 *15:14 *453:A 0
15 *15:14 *466:A2 5.84443e-05
16 *15:14 *466:B1 3.83453e-06
17 *15:14 *595:B 8.58925e-06
18 *15:14 *601:B1 3.01115e-06
19 *15:14 *705:CK 5.01336e-06
20 *15:14 *100:21 0
21 *15:14 *257:16 1.61768e-05
22 *449:B *15:14 1.8707e-05
*RES
1 *558:ZN *15:14 28.8214 
2 *15:14 *668:B 5 
3 *15:14 *559:A 22.5357 
*END

*D_NET *16 1.74261e-05
*CONN
*I *453:B2 I *D OAI21_X1
*I *668:CO O *D HA_X1
*CAP
1 *453:B2 8.71307e-06
2 *668:CO 8.71307e-06
3 *453:B2 *452:A1 0
*RES
1 *668:CO *453:B2 10.9286 
*END

*D_NET *17 0.000104772
*CONN
*I *449:A I *D MUX2_X1
*I *668:S O *D HA_X1
*CAP
1 *449:A 2.29344e-05
2 *668:S 2.29344e-05
3 *449:A *449:S 7.19036e-06
4 *449:A *466:A2 3.89107e-05
5 *449:A *466:B1 1.28019e-05
*RES
1 *668:S *449:A 13.75 
*END

*D_NET *18 0.000188842
*CONN
*I *455:B2 I *D AOI221_X1
*I *669:CO O *D HA_X1
*CAP
1 *455:B2 6.55368e-05
2 *669:CO 6.55368e-05
3 *455:B2 *455:A 1.68643e-06
4 *455:B2 *455:B1 2.39679e-06
5 *455:B2 *455:C1 1.03334e-06
6 *455:B2 *669:A 1.75009e-05
7 *455:B2 *141:79 1.09178e-05
8 *455:B2 *371:76 7.69139e-07
9 *455:B2 *371:87 9.06905e-06
10 *455:B2 *372:65 1.43951e-05
*RES
1 *669:CO *455:B2 27.3929 
*END

*D_NET *19 0.000825654
*CONN
*I *514:B I *D MUX2_X1
*I *670:A I *D HA_X1
*I *439:B2 I *D AOI222_X1
*I *707:QN O *D DFFR_X1
*CAP
1 *514:B 0
2 *670:A 0
3 *439:B2 4.89255e-05
4 *707:QN 7.03607e-05
5 *19:14 0.000223081
6 *19:12 0.000244517
7 *439:B2 *439:C2 5.25633e-05
8 *439:B2 *441:A 2.7659e-05
9 *439:B2 *370:14 8.11962e-06
10 *439:B2 *387:18 4.12555e-06
11 *19:12 *102:280 1.60038e-06
12 *19:12 *102:295 2.80727e-05
13 *19:12 *370:8 0
14 *19:12 *387:10 1.41532e-05
15 *19:14 *441:A 2.82396e-05
16 *19:14 *442:A 1.14159e-05
17 *19:14 *370:8 0
18 *19:14 *370:14 3.14952e-06
19 *19:14 *387:10 8.59171e-06
20 *19:14 *387:18 5.10791e-05
*RES
1 *707:QN *19:12 18.3214 
2 *19:12 *19:14 19.9286 
3 *19:14 *439:B2 16.3571 
4 *19:14 *670:A 10 
5 *19:12 *514:B 10 
*END

*D_NET *20 0.00094806
*CONN
*I *551:A I *D INV_X1
*I *670:B I *D HA_X1
*I *550:ZN O *D OR2_X1
*CAP
1 *551:A 5.65932e-05
2 *670:B 0
3 *550:ZN 0.000180031
4 *20:24 8.62368e-05
5 *20:22 0.000209675
6 *551:A *442:B1 2.03295e-05
7 *551:A *681:A 3.83799e-05
8 *551:A *688:A 8.43215e-07
9 *551:A *369:73 9.16739e-05
10 *20:22 *418:A 2.37156e-05
11 *20:22 *421:A 1.82613e-05
12 *20:22 *421:C2 2.88615e-06
13 *20:22 *439:A2 4.0052e-05
14 *20:22 *504:B2 1.4479e-05
15 *20:22 *547:A 8.55471e-06
16 *20:22 *550:A2 5.62905e-06
17 *20:22 *681:A 1.45095e-05
18 *20:22 *98:122 0
19 *20:22 *109:59 5.30816e-06
20 *20:22 *124:21 2.47905e-06
21 *20:22 *128:34 3.0001e-06
22 *20:22 *368:51 4.04607e-05
23 *20:24 *504:B2 0
24 *20:24 *681:A 4.77938e-05
25 *20:24 *369:73 3.71685e-05
*RES
1 *550:ZN *20:22 46.1786 
2 *20:22 *20:24 4.75 
3 *20:24 *670:B 5 
4 *20:24 *551:A 14.25 
*END

*D_NET *21 1.8067e-05
*CONN
*I *441:B2 I *D OAI221_X1
*I *670:CO O *D HA_X1
*CAP
1 *441:B2 8.15016e-06
2 *670:CO 8.15016e-06
3 *441:B2 *437:B1 1.76665e-06
*RES
1 *670:CO *441:B2 10.9286 
*END

*D_NET *22 0.00019192
*CONN
*I *439:C2 I *D AOI222_X1
*I *670:S O *D HA_X1
*CAP
1 *439:C2 4.4117e-05
2 *670:S 4.4117e-05
3 *439:C2 *439:A1 4.89331e-06
4 *439:C2 *439:B1 9.18297e-06
5 *439:C2 *439:C1 1.21774e-06
6 *439:C2 *504:B2 0
7 *439:C2 *681:B 2.16603e-05
8 *439:C2 *335:12 8.26038e-06
9 *439:C2 *370:14 2.23833e-06
10 *439:C2 *387:18 3.66954e-06
11 *439:B2 *439:C2 5.25633e-05
*RES
1 *670:S *439:C2 26.4286 
*END

*D_NET *23 1.74261e-05
*CONN
*I *440:A I *D INV_X1
*I *671:CO O *D HA_X1
*CAP
1 *440:A 8.71307e-06
2 *671:CO 8.71307e-06
*RES
1 *671:CO *440:A 10.9286 
*END

*D_NET *24 0.00136412
*CONN
*I *513:B I *D MUX2_X1
*I *672:A I *D HA_X1
*I *413:B2 I *D AOI222_X1
*I *706:QN O *D DFFR_X1
*CAP
1 *513:B 0
2 *672:A 0
3 *413:B2 4.76323e-05
4 *706:QN 0.000134123
5 *24:20 0.000215692
6 *24:12 0.000302183
7 *413:B2 *413:C1 4.99394e-06
8 *413:B2 *439:A2 2.52965e-06
9 *413:B2 *544:C1 1.19839e-05
10 *413:B2 *109:50 2.75346e-06
11 *413:B2 *109:59 3.20238e-05
12 *413:B2 *117:42 4.70435e-05
13 *24:12 *514:S 0.00011928
14 *24:12 *649:B 1.52374e-05
15 *24:12 *78:14 2.97112e-05
16 *24:12 *98:144 6.06867e-06
17 *24:12 *369:10 0
18 *24:20 *421:C1 9.97597e-05
19 *24:20 *437:A 1.36905e-06
20 *24:20 *441:C2 0.000126736
21 *24:20 *649:B 8.91549e-06
22 *24:20 *98:137 2.57357e-05
23 *24:20 *98:144 1.27666e-06
24 *24:20 *122:16 0.000102361
25 *24:20 *343:14 7.9909e-06
26 *24:20 *343:20 3.83909e-06
27 *24:20 *368:51 1.48839e-05
*RES
1 *706:QN *24:12 32.5714 
2 *24:12 *24:20 32.6429 
3 *24:20 *413:B2 11.9286 
4 *24:20 *672:A 5 
5 *24:12 *513:B 5 
*END

*D_NET *25 0.000294118
*CONN
*I *672:B I *D HA_X1
*I *546:A I *D INV_X1
*I *545:ZN O *D OR2_X1
*CAP
1 *672:B 3.49109e-05
2 *546:A 4.32903e-05
3 *545:ZN 2.91442e-05
4 *25:6 0.000107345
5 *546:A *505:A2 1.73047e-05
6 *546:A *117:42 0
7 *546:A *387:18 2.51631e-06
8 *672:B *413:C2 2.16072e-07
9 *672:B *117:42 1.25215e-05
10 *25:6 *413:C2 2.66356e-05
11 *25:6 *504:A1 3.23723e-07
12 *25:6 *505:A2 5.62375e-06
13 *25:6 *220:41 7.09501e-06
14 *25:6 *228:28 7.19036e-06
*RES
1 *545:ZN *25:6 8.75 
2 *25:6 *546:A 9.75 
3 *25:6 *672:B 9.21429 
*END

*D_NET *26 0.000266219
*CONN
*I *421:C1 I *D OAI221_X1
*I *672:CO O *D HA_X1
*CAP
1 *421:C1 3.99476e-05
2 *672:CO 3.99476e-05
3 *421:C1 *421:C2 2.52965e-06
4 *421:C1 *425:A 7.19036e-06
5 *421:C1 *437:A 8.74312e-07
6 *421:C1 *368:51 7.59701e-05
7 *24:20 *421:C1 9.97597e-05
*RES
1 *672:CO *421:C1 26.4286 
*END

*D_NET *27 0.000141005
*CONN
*I *413:C2 I *D AOI222_X1
*I *672:S O *D HA_X1
*CAP
1 *413:C2 3.75014e-05
2 *672:S 3.75014e-05
3 *413:C2 *504:A1 3.16534e-05
4 *413:C2 *220:41 7.49745e-06
5 *672:B *413:C2 2.16072e-07
6 *25:6 *413:C2 2.66356e-05
*RES
1 *672:S *413:C2 14.75 
*END

*D_NET *28 8.54633e-05
*CONN
*I *418:A I *D INV_X1
*I *673:CO O *D HA_X1
*CAP
1 *418:A 2.93627e-05
2 *673:CO 2.93627e-05
3 *418:A *421:B2 8.43215e-07
4 *418:A *439:A2 2.17903e-06
5 *20:22 *418:A 2.37156e-05
*RES
1 *673:CO *418:A 13.25 
*END

*D_NET *29 0.000722637
*CONN
*I *674:A I *D HA_X1
*I *507:A2 I *D NAND2_X1
*I *705:QN O *D DFFR_X1
*CAP
1 *674:A 8.66762e-05
2 *507:A2 6.84681e-05
3 *705:QN 0
4 *29:4 0.000155144
5 *507:A2 *509:B2 1.59479e-05
6 *507:A2 *547:S 0.000100244
7 *507:A2 *574:A1 3.83909e-06
8 *507:A2 *574:A2 2.16072e-07
9 *507:A2 *648:A 0
10 *507:A2 *30:18 2.26004e-05
11 *507:A2 *220:18 4.26902e-05
12 *507:A2 *220:31 4.19223e-05
13 *507:A2 *348:14 8.83477e-06
14 *507:A2 *358:229 2.87711e-05
15 *674:A *509:A 1.72426e-05
16 *674:A *648:A 0
17 *674:A *675:A 8.58686e-06
18 *674:A *30:18 2.14425e-05
19 *674:A *30:22 8.64288e-07
20 *674:A *125:47 2.79426e-06
21 *674:A *128:51 7.95747e-05
22 *674:A *256:12 1.67775e-05
*RES
1 *705:QN *29:4 5 
2 *29:4 *507:A2 26.2857 
3 *29:4 *674:A 25.8214 
*END

*D_NET *30 0.000634311
*CONN
*I *674:B I *D HA_X1
*I *576:A I *D INV_X1
*I *663:B1 I *D AOI21_X1
*I *575:ZN O *D NOR2_X1
*CAP
1 *674:B 0
2 *576:A 2.25807e-05
3 *663:B1 8.27647e-06
4 *575:ZN 9.36521e-05
5 *30:22 0.000120018
6 *30:18 0.000182813
7 *576:A *663:A 2.39679e-06
8 *576:A *256:12 4.9678e-06
9 *663:B1 *663:A 2.39679e-06
10 *663:B1 *663:B2 8.43215e-07
11 *663:B1 *164:14 0
12 *30:18 *509:A 2.80752e-05
13 *30:18 *509:B1 0
14 *30:18 *509:B2 1.52081e-05
15 *30:18 *547:S 1.14231e-05
16 *30:18 *675:A 9.43007e-06
17 *30:18 *256:12 4.6613e-07
18 *30:18 *368:8 3.48044e-06
19 *30:18 *368:38 2.71623e-06
20 *30:22 *675:A 5.89767e-05
21 *30:22 *675:B 8.89375e-06
22 *30:22 *164:14 0
23 *30:22 *256:12 1.27894e-05
24 *507:A2 *30:18 2.26004e-05
25 *674:A *30:18 2.14425e-05
26 *674:A *30:22 8.64288e-07
*RES
1 *575:ZN *30:18 27.1429 
2 *30:18 *30:22 11.1786 
3 *30:22 *663:B1 6.25 
4 *30:22 *576:A 7.85714 
5 *30:18 *674:B 5 
*END

*D_NET *31 1.98064e-05
*CONN
*I *506:B2 I *D OAI21_X1
*I *674:CO O *D HA_X1
*CAP
1 *506:B2 6.62225e-06
2 *674:CO 6.62225e-06
3 *506:B2 *241:22 6.56185e-06
*RES
1 *674:CO *506:B2 10.9286 
*END

*D_NET *32 0.000403701
*CONN
*I *505:B2 I *D AOI22_X1
*I *674:S O *D HA_X1
*CAP
1 *505:B2 4.46122e-05
2 *674:S 4.46122e-05
3 *505:B2 *468:B1 0.000178921
4 *505:B2 *648:B 0.000113001
5 *505:B2 *128:51 2.25546e-05
*RES
1 *674:S *505:B2 29.75 
*END

*D_NET *33 0.000282781
*CONN
*I *509:C1 I *D AOI221_X1
*I *675:CO O *D HA_X1
*CAP
1 *509:C1 8.45146e-05
2 *675:CO 8.45146e-05
3 *509:C1 *439:A1 0
4 *509:C1 *468:B1 4.177e-06
5 *509:C1 *510:A2 2.75346e-06
6 *509:C1 *241:22 1.98671e-05
7 *509:C1 *256:12 8.69546e-05
*RES
1 *675:CO *509:C1 30.3571 
*END

*D_NET *34 0.000361639
*CONN
*I *680:B I *D HA_X1
*I *676:B I *D HA_X1
*I *587:ZN O *D INV_X1
*CAP
1 *680:B 2.35844e-05
2 *676:B 8.35123e-05
3 *587:ZN 0.000107097
4 *676:B *479:A1 1.52083e-06
5 *676:B *490:B2 2.28853e-05
6 *676:B *491:A1 7.82677e-06
7 *676:B *542:S 7.04443e-07
8 *676:B *182:90 2.47589e-06
9 *676:B *223:8 4.32298e-05
10 *676:B *223:16 8.80286e-06
11 *676:B *340:16 0
12 *680:B *542:S 1.4495e-06
13 *680:B *101:107 0
14 *680:B *223:16 2.83125e-05
15 *676:A *676:B 3.02372e-05
*RES
1 *587:ZN *676:B 30.0357 
2 *587:ZN *680:B 12.75 
*END

*D_NET *35 0.000104597
*CONN
*I *497:B1 I *D OAI21_X1
*I *676:CO O *D HA_X1
*CAP
1 *497:B1 4.86991e-05
2 *676:CO 4.86991e-05
3 *497:B1 *479:A1 4.44528e-06
4 *497:B1 *490:A 0
5 *497:B1 *497:A 2.75346e-06
6 *497:B1 *703:CK 0
*RES
1 *676:CO *497:B1 14.8571 
*END

*D_NET *36 0.000199619
*CONN
*I *499:A2 I *D NAND3_X1
*I *676:S O *D HA_X1
*CAP
1 *499:A2 6.34278e-05
2 *676:S 6.34278e-05
3 *499:A2 *479:A1 1.88334e-06
4 *499:A2 *498:A2 6.81033e-07
5 *499:A2 *499:A1 8.43215e-07
6 *499:A2 *499:A3 4.02744e-05
7 *499:A2 *500:A 1.21466e-05
8 *499:A2 *223:8 1.10197e-05
9 *1:74 *499:A2 5.91521e-06
*RES
1 *676:S *499:A2 28.0714 
*END

*D_NET *37 0.000216631
*CONN
*I *492:C1 I *D AOI222_X1
*I *677:CO O *D HA_X1
*CAP
1 *492:C1 4.91415e-05
2 *677:CO 4.91415e-05
3 *492:C1 *484:B1 0
4 *492:C1 *491:A2 2.14667e-06
5 *492:C1 *492:B1 0.000116202
6 *492:C1 *57:14 0
*RES
1 *677:CO *492:C1 26.3571 
*END

*D_NET *38 0.000289135
*CONN
*I *523:A3 I *D NAND4_X1
*I *520:A1 I *D NAND2_X1
*I *678:CO O *D HA_X1
*CAP
1 *523:A3 2.40429e-05
2 *520:A1 0
3 *678:CO 1.17675e-05
4 *38:8 3.58104e-05
5 *523:A3 *359:55 4.68823e-05
6 *523:A3 *374:25 0.000103099
7 *523:A3 *374:36 1.77822e-05
8 *38:8 *518:A2 5.11191e-06
9 *38:8 *359:55 1.52269e-05
10 *38:8 *374:25 2.94113e-05
*RES
1 *678:CO *38:8 12.2857 
2 *38:8 *520:A1 10 
3 *38:8 *523:A3 16.3571 
*END

*D_NET *39 0.00010371
*CONN
*I *518:A1 I *D NAND2_X1
*I *678:S O *D HA_X1
*CAP
1 *518:A1 2.53744e-05
2 *678:S 2.53744e-05
3 *518:A1 *518:A2 1.45851e-05
4 *577:A2 *518:A1 3.83757e-05
*RES
1 *678:S *518:A1 13.75 
*END

*D_NET *40 7.84378e-05
*CONN
*I *679:B I *D HA_X1
*I *598:ZN O *D XNOR2_X1
*CAP
1 *679:B 3.34268e-05
2 *598:ZN 3.34268e-05
3 *679:B *475:B1 0
4 *679:B *679:A 1.15841e-05
*RES
1 *598:ZN *679:B 13.6786 
*END

*D_NET *41 0.000609417
*CONN
*I *609:A3 I *D NOR3_X1
*I *606:A3 I *D NOR3_X1
*I *608:A2 I *D NOR2_X1
*I *679:CO O *D HA_X1
*CAP
1 *609:A3 0
2 *606:A3 7.27565e-05
3 *608:A2 7.37719e-05
4 *679:CO 0
5 *41:21 9.7093e-05
6 *41:4 9.81083e-05
7 *606:A3 *474:B 0
8 *606:A3 *609:A2 7.92991e-05
9 *606:A3 *610:A2 5.64879e-06
10 *606:A3 *52:14 0.000107416
11 *606:A3 *267:8 0
12 *608:A2 *474:B 5.94783e-07
13 *608:A2 *608:A1 8.43215e-07
14 *608:A2 *610:A1 1.52724e-05
15 *608:A2 *610:A2 1.72426e-05
16 *608:A2 *42:6 3.35796e-05
17 *608:A2 *270:12 0
18 *41:21 *474:B 0
19 *41:21 *609:A2 2.39679e-06
20 *41:21 *610:A2 2.52965e-06
21 *41:21 *270:12 2.86475e-06
*RES
1 *679:CO *41:4 5 
2 *41:4 *608:A2 23.9286 
3 *41:4 *41:21 2.67857 
4 *41:21 *606:A3 25.4286 
5 *41:21 *609:A3 5 
*END

*D_NET *42 0.000219144
*CONN
*I *608:A1 I *D NOR2_X1
*I *474:A I *D XOR2_X1
*I *679:S O *D HA_X1
*CAP
1 *608:A1 2.82481e-05
2 *474:A 2.06601e-05
3 *679:S 2.80294e-05
4 *42:6 7.69376e-05
5 *608:A1 *270:12 2.23871e-06
6 *42:6 *475:B1 2.86077e-05
7 *42:6 *270:12 0
8 *608:A2 *608:A1 8.43215e-07
9 *608:A2 *42:6 3.35796e-05
*RES
1 *679:S *42:6 9.75 
2 *42:6 *474:A 7.35714 
3 *42:6 *608:A1 8.53572 
*END

*D_NET *43 0.00113631
*CONN
*I *540:A I *D INV_X1
*I *680:A I *D HA_X1
*I *604:A3 I *D NAND3_X2
*I *685:B I *D HA_X1
*I *539:ZN O *D AOI221_X2
*CAP
1 *540:A 2.84331e-05
2 *680:A 3.66352e-05
3 *604:A3 7.4699e-05
4 *685:B 0
5 *539:ZN 0
6 *43:23 0.000172684
7 *43:12 9.76407e-05
8 *43:6 6.47237e-05
9 *540:A *539:C1 3.13495e-05
10 *540:A *539:C2 1.21774e-06
11 *540:A *687:A 0
12 *540:A *57:8 0
13 *540:A *128:10 8.1183e-06
14 *604:A3 *476:A1 3.24673e-06
15 *604:A3 *477:A2 1.62177e-05
16 *604:A3 *535:A2 1.6531e-05
17 *604:A3 *536:A1 0.000114991
18 *604:A3 *542:S 3.82563e-06
19 *604:A3 *101:107 5.86875e-06
20 *604:A3 *157:8 0
21 *604:A3 *157:68 0
22 *604:A3 *333:19 4.04037e-05
23 *680:A *220:47 1.97717e-05
24 *680:A *223:16 5.38905e-05
25 *43:12 *539:B1 3.6954e-05
26 *43:12 *539:C1 4.24402e-05
27 *43:12 *182:90 1.18232e-06
28 *43:12 *223:16 1.07021e-05
29 *43:23 *535:A2 7.59667e-06
30 *43:23 *539:B1 6.39606e-05
31 *43:23 *220:47 4.9678e-06
32 *43:23 *223:16 1.63647e-05
33 *43:23 *333:19 5.34005e-05
34 *43:23 *367:27 6.82202e-07
35 *43:23 *367:40 1.18589e-06
36 *676:A *540:A 6.3642e-05
37 *676:A *43:12 4.29819e-05
*RES
1 *539:ZN *43:6 10 
2 *43:6 *43:12 11.0357 
3 *43:12 *685:B 5 
4 *43:12 *43:23 14.2143 
5 *43:23 *604:A3 20.4286 
6 *43:23 *680:A 15.25 
7 *43:6 *540:A 14.8929 
*END

*D_NET *44 0.00232029
*CONN
*I *582:A1 I *D NOR2_X1
*I *597:B2 I *D AOI21_X1
*I *585:B2 I *D AOI21_X1
*I *680:CO O *D HA_X1
*CAP
1 *582:A1 0
2 *597:B2 0
3 *585:B2 0
4 *680:CO 0.000359783
5 *44:35 0.000255954
6 *44:20 0.000308115
7 *44:16 0.000411944
8 *44:16 *439:A1 4.92317e-06
9 *44:16 *439:B1 3.28001e-05
10 *44:16 *468:B1 0
11 *44:16 *544:C1 0.000103469
12 *44:16 *583:B 9.22998e-06
13 *44:16 *648:B 0
14 *44:16 *681:B 3.22684e-06
15 *44:16 *115:60 6.94803e-05
16 *44:16 *115:73 5.37591e-05
17 *44:16 *117:31 8.50703e-05
18 *44:16 *117:46 0
19 *44:16 *122:16 7.84886e-06
20 *44:16 *190:37 1.43824e-05
21 *44:16 *370:29 7.26449e-07
22 *44:20 *506:A 3.19164e-07
23 *44:20 *506:B1 0
24 *44:20 *583:A 5.81113e-06
25 *44:20 *584:A2 1.60494e-06
26 *44:20 *585:B1 2.24822e-06
27 *44:20 *241:22 2.75346e-06
28 *44:20 *241:31 5.82556e-05
29 *44:35 *503:A 0
30 *44:35 *585:A 1.68643e-06
31 *44:35 *585:B1 2.39679e-06
32 *44:35 *586:A 7.9624e-06
33 *44:35 *586:B 4.21967e-05
34 *44:35 *607:A 0
35 *44:35 *607:C1 2.54095e-06
36 *44:35 *660:A1 0
37 *44:35 *684:B 3.25412e-05
38 *44:35 *49:10 0
39 *44:35 *133:24 5.12024e-06
40 *44:35 *241:31 1.68643e-06
41 *44:35 *241:54 5.26538e-05
42 *44:35 *241:58 4.24402e-05
43 *44:35 *256:12 0
44 *44:35 *256:23 0.000337363
45 *44:35 *336:8 0
*RES
1 *680:CO *44:16 43.3914 
2 *44:16 *44:20 6.67857 
3 *44:20 *585:B2 5 
4 *44:20 *44:35 47.8929 
5 *44:35 *597:B2 5 
6 *44:16 *582:A1 5 
*END

*D_NET *45 0.000194325
*CONN
*I *568:A I *D MUX2_X1
*I *680:S O *D HA_X1
*CAP
1 *568:A 5.33106e-05
2 *680:S 5.33106e-05
3 *568:A *543:A4 2.19363e-06
4 *568:A *544:B2 3.52213e-05
5 *568:A *157:68 5.02885e-05
*RES
1 *680:S *568:A 27.7143 
*END

*D_NET *46 5.69302e-05
*CONN
*I *428:B1 I *D AOI21_X1
*I *682:S O *D HA_X1
*CAP
1 *428:B1 2.563e-05
2 *682:S 2.563e-05
3 *428:B1 *428:B2 1.21774e-06
4 *428:B1 *124:23 1.86809e-06
5 *428:B1 *128:26 2.58428e-06
6 *427:A *428:B1 0
*RES
1 *682:S *428:B1 12.8571 
*END

*D_NET *47 0.000415531
*CONN
*I *681:B I *D HA_X1
*I *583:ZN O *D XNOR2_X1
*CAP
1 *681:B 0.00010756
2 *583:ZN 0.00010756
3 *681:B *439:A1 9.44188e-05
4 *681:B *503:A 6.85774e-07
5 *681:B *504:B2 6.45827e-06
6 *681:B *664:A 0
7 *681:B *681:A 2.22661e-05
8 *681:B *688:B 5.01004e-05
9 *681:B *150:20 1.59582e-06
10 *681:B *335:12 0
11 *681:B *369:73 0
12 *439:C2 *681:B 2.16603e-05
13 *444:B1 *681:B 0
14 *44:16 *681:B 3.22684e-06
*RES
1 *583:ZN *681:B 34.75 
*END

*D_NET *48 0.000844392
*CONN
*I *426:A I *D INV_X1
*I *456:A1 I *D AND3_X1
*I *681:CO O *D HA_X1
*CAP
1 *426:A 0
2 *456:A1 8.93011e-05
3 *681:CO 0.000105559
4 *48:16 0.00019486
5 *456:A1 *445:B2 8.93174e-06
6 *456:A1 *457:A 5.59765e-05
7 *456:A1 *457:B1 0.000203458
8 *456:A1 *133:18 6.48738e-06
9 *456:A1 *133:24 5.15129e-05
10 *456:A1 *150:20 1.65458e-05
11 *48:16 *430:A 8.43215e-07
12 *48:16 *430:B1 4.32144e-07
13 *48:16 *431:B 8.708e-06
14 *48:16 *684:A 2.89562e-05
15 *48:16 *688:A 1.58933e-05
16 *48:16 *62:12 7.09501e-06
17 *48:16 *133:18 3.57627e-07
18 *48:16 *133:24 1.07657e-05
19 *444:B1 *48:16 3.87077e-05
*RES
1 *681:CO *48:16 28.75 
2 *48:16 *456:A1 30.1786 
3 *48:16 *426:A 5 
*END

*D_NET *49 0.00105853
*CONN
*I *503:A I *D XNOR2_X1
*I *429:A I *D INV_X1
*I *458:A1 I *D NAND3_X1
*I *681:S O *D HA_X1
*CAP
1 *503:A 7.45248e-05
2 *429:A 2.99565e-05
3 *458:A1 5.65919e-05
4 *681:S 0
5 *49:10 0.000187367
6 *49:4 0.000175344
7 *429:A *445:B1 2.51997e-05
8 *429:A *445:B2 4.21607e-06
9 *429:A *457:B1 7.40116e-05
10 *429:A *63:21 4.21607e-06
11 *429:A *63:23 5.33077e-05
12 *458:A1 *457:B1 8.90634e-05
13 *458:A1 *458:A2 2.39679e-06
14 *458:A1 *458:A3 7.03242e-05
15 *458:A1 *56:28 1.52233e-05
16 *458:A1 *63:23 3.81944e-05
17 *458:A1 *160:10 2.75346e-06
18 *458:A1 *161:12 0
19 *503:A *586:B 0
20 *503:A *664:A 1.21774e-06
21 *503:A *688:B 2.07643e-05
22 *503:A *141:79 8.11762e-05
23 *503:A *336:8 0
24 *49:10 *431:A 9.57492e-07
25 *49:10 *446:A 1.73125e-05
26 *49:10 *456:A3 1.08036e-06
27 *49:10 *684:A 1.32323e-05
28 *49:10 *684:B 1.12544e-06
29 *49:10 *688:B 7.66204e-06
30 *49:10 *55:8 1.53857e-06
31 *49:10 *56:17 2.88159e-06
32 *49:10 *63:21 3.23723e-07
33 *49:10 *149:14 5.88296e-06
34 *49:10 *150:20 0
35 *681:B *503:A 6.85774e-07
36 *44:35 *503:A 0
37 *44:35 *49:10 0
*RES
1 *681:S *49:4 5 
2 *49:4 *49:10 16.1786 
3 *49:10 *458:A1 19.75 
4 *49:10 *429:A 15.5714 
5 *49:4 *503:A 24.5714 
*END

*D_NET *50 0.000239768
*CONN
*I *428:A I *D AOI21_X1
*I *682:CO O *D HA_X1
*CAP
1 *428:A 3.53562e-05
2 *682:CO 3.53562e-05
3 *428:A *511:S 2.99163e-05
4 *428:A *542:B 7.45516e-06
5 *428:A *98:12 0.000131684
*RES
1 *682:CO *428:A 27.0357 
*END

*D_NET *51 8.56263e-05
*CONN
*I *683:B I *D HA_X1
*I *662:ZN O *D XNOR2_X1
*CAP
1 *683:B 2.655e-05
2 *662:ZN 2.655e-05
3 *683:B *683:A 3.25263e-05
*RES
1 *662:ZN *683:B 13.25 
*END

*D_NET *52 0.000625009
*CONN
*I *606:A2 I *D NOR3_X1
*I *473:A I *D AOI21_X1
*I *609:A2 I *D NOR3_X1
*I *683:CO O *D HA_X1
*CAP
1 *606:A2 5.57924e-06
2 *473:A 5.28566e-06
3 *609:A2 3.28436e-05
4 *683:CO 7.75136e-05
5 *52:14 6.61287e-05
6 *52:10 0.000111092
7 *473:A *461:A 8.43215e-07
8 *473:A *473:B1 7.19036e-06
9 *606:A2 *460:A2 0
10 *609:A2 *473:B1 7.99671e-06
11 *609:A2 *53:12 6.48216e-07
12 *609:A2 *267:8 0
13 *609:A2 *270:12 1.27666e-06
14 *52:10 *461:A 0
15 *52:10 *607:B 2.08251e-05
16 *52:10 *607:C1 0
17 *52:10 *164:14 3.01997e-05
18 *52:14 *461:B 5.54328e-05
19 *52:14 *473:B1 1.30415e-05
20 *606:A3 *609:A2 7.92991e-05
21 *606:A3 *52:14 0.000107416
22 *41:21 *609:A2 2.39679e-06
*RES
1 *683:CO *52:10 14.4286 
2 *52:10 *52:14 11.3571 
3 *52:14 *609:A2 15.0714 
4 *52:14 *473:A 10.75 
5 *52:10 *606:A2 5.75 
*END

*D_NET *53 0.000344905
*CONN
*I *461:A I *D XOR2_X1
*I *473:B2 I *D AOI21_X1
*I *609:A1 I *D NOR3_X1
*I *683:S O *D HA_X1
*CAP
1 *461:A 1.28245e-05
2 *473:B2 0
3 *609:A1 1.39074e-05
4 *683:S 8.49306e-05
5 *53:12 6.14028e-05
6 *53:8 0.00014525
7 *461:A *473:B1 4.32144e-07
8 *461:A *164:14 9.62051e-07
9 *53:8 *164:14 1.11844e-05
10 *53:12 *474:B 1.25189e-05
11 *53:12 *270:12 0
12 *473:A *461:A 8.43215e-07
13 *609:A2 *53:12 6.48216e-07
14 *52:10 *461:A 0
*RES
1 *683:S *53:8 13.8571 
2 *53:8 *53:12 5.89286 
3 *53:12 *609:A1 6.60714 
4 *53:12 *473:B2 5 
5 *53:8 *461:A 6.75 
*END

*D_NET *54 0.000140867
*CONN
*I *684:B I *D HA_X1
*I *586:ZN O *D XNOR2_X1
*CAP
1 *684:B 5.05044e-05
2 *586:ZN 5.05044e-05
3 *684:B *457:B2 4.3538e-06
4 *684:B *56:17 1.83827e-06
5 *44:35 *684:B 3.25412e-05
6 *49:10 *684:B 1.12544e-06
*RES
1 *586:ZN *684:B 16.4643 
*END

*D_NET *55 0.000624183
*CONN
*I *471:A I *D INV_X1
*I *460:A1 I *D NOR2_X1
*I *606:A1 I *D NOR3_X1
*I *684:CO O *D HA_X1
*CAP
1 *471:A 0
2 *460:A1 0
3 *606:A1 4.11476e-05
4 *684:CO 8.50551e-05
5 *55:12 0.000135323
6 *55:8 0.00017923
7 *606:A1 *461:B 4.04508e-05
8 *55:8 *444:B2 0
9 *55:8 *446:A 2.27974e-09
10 *55:8 *472:A 6.77793e-06
11 *55:8 *472:B1 2.12932e-05
12 *55:8 *63:21 4.65233e-05
13 *55:8 *149:14 3.1943e-05
14 *55:12 *472:B1 3.35941e-06
15 *55:12 *473:B1 1.69126e-05
16 *55:12 *63:23 0
17 *55:12 *161:12 1.46266e-05
18 *444:B1 *55:8 0
19 *49:10 *55:8 1.53857e-06
*RES
1 *684:CO *55:8 15.3571 
2 *55:8 *55:12 15.4286 
3 *55:12 *606:A1 15.6786 
4 *55:12 *460:A1 10 
5 *55:8 *471:A 5 
*END

*D_NET *56 0.000435012
*CONN
*I *458:A2 I *D NAND3_X1
*I *443:A I *D INV_X1
*I *456:A2 I *D AND3_X1
*I *457:B2 I *D AOI21_X1
*I *684:S O *D HA_X1
*CAP
1 *458:A2 3.73114e-05
2 *443:A 0
3 *456:A2 0
4 *457:B2 5.96629e-05
5 *684:S 0
6 *56:28 8.90621e-05
7 *56:17 8.45636e-05
8 *56:4 9.24759e-05
9 *457:B2 *457:A 2.14856e-06
10 *457:B2 *459:A 7.16188e-07
11 *457:B2 *459:B2 0
12 *458:A2 *458:A3 2.39679e-06
13 *458:A2 *472:A 0
14 *458:A2 *472:B2 8.43215e-07
15 *56:17 *456:A3 2.39679e-06
16 *56:17 *457:A 3.09411e-06
17 *56:17 *684:A 7.16188e-07
18 *56:28 *446:A 5.51112e-06
19 *56:28 *456:A3 1.67775e-05
20 *56:28 *459:A 0
21 *56:28 *472:B2 8.99555e-06
22 *56:28 *147:6 1.3225e-06
23 *56:28 *160:10 3.23723e-07
24 *458:A1 *458:A2 2.39679e-06
25 *458:A1 *56:28 1.52233e-05
26 *684:B *457:B2 4.3538e-06
27 *684:B *56:17 1.83827e-06
28 *49:10 *56:17 2.88159e-06
*RES
1 *684:S *56:4 5 
2 *56:4 *457:B2 11.7143 
3 *56:4 *56:17 4.67857 
4 *56:17 *456:A2 5 
5 *56:17 *56:28 6.92857 
6 *56:28 *443:A 5 
7 *56:28 *458:A2 9.78572 
*END

*D_NET *57 0.00142906
*CONN
*I *686:A I *D HA_X1
*I *476:A1 I *D NAND2_X1
*I *685:A I *D HA_X1
*I *703:QN O *D DFFR_X1
*CAP
1 *686:A 0
2 *476:A1 0.000149154
3 *685:A 0
4 *703:QN 8.89063e-05
5 *57:14 0.000230343
6 *57:8 0.000170096
7 *476:A1 *476:A2 1.21774e-06
8 *476:A1 *477:A2 0.000102958
9 *476:A1 *478:A 2.03657e-05
10 *476:A1 *478:B1 5.66192e-05
11 *476:A1 *478:B2 2.39679e-06
12 *476:A1 *479:A2 1.59471e-05
13 *476:A1 *484:B1 0
14 *476:A1 *484:C2 0
15 *476:A1 *532:B2 5.73913e-06
16 *476:A1 *535:A2 0.000140087
17 *476:A1 *536:A1 1.87931e-05
18 *476:A1 *539:B1 7.5313e-05
19 *476:A1 *568:B 2.08098e-06
20 *476:A1 *105:65 1.27666e-06
21 *476:A1 *361:169 0
22 *476:A1 *367:40 0.000170601
23 *57:8 *501:B1 0
24 *57:8 *501:B2 1.18589e-06
25 *57:8 *502:A3 3.03523e-06
26 *57:8 *646:A 0
27 *57:8 *686:B 0
28 *57:8 *687:A 3.09411e-06
29 *57:8 *128:26 1.21563e-05
30 *57:8 *298:79 3.45285e-05
31 *57:8 *366:12 6.82202e-07
32 *57:14 *484:B1 1.96898e-05
33 *57:14 *491:A2 1.74663e-05
34 *57:14 *492:B1 0
35 *57:14 *128:10 1.63465e-06
36 *57:14 *182:90 2.68097e-05
37 *492:C1 *57:14 0
38 *540:A *57:8 0
39 *604:A3 *476:A1 3.24673e-06
40 *676:A *57:8 5.36378e-05
*RES
1 *703:QN *57:8 16.3571 
2 *57:8 *57:14 20.4286 
3 *57:14 *685:A 5 
4 *57:14 *476:A1 40.8572 
5 *57:8 *686:A 5 
*END

*D_NET *58 4.28951e-05
*CONN
*I *482:A2 I *D NOR2_X1
*I *685:CO O *D HA_X1
*CAP
1 *482:A2 2.14476e-05
2 *685:CO 2.14476e-05
3 *482:A2 *484:A 0
4 *482:A2 *484:B2 0
5 *482:A2 *332:6 0
*RES
1 *685:CO *482:A2 12.2857 
*END

*D_NET *59 1.74261e-05
*CONN
*I *490:A I *D OAI21_X1
*I *685:S O *D HA_X1
*CAP
1 *490:A 8.12034e-06
2 *685:S 8.12034e-06
3 *490:A *223:16 1.18547e-06
4 *497:B1 *490:A 0
*RES
1 *685:S *490:A 10.9286 
*END

*D_NET *60 0.000430079
*CONN
*I *484:C2 I *D AOI221_X1
*I *687:CO O *D HA_X1
*CAP
1 *484:C2 9.99137e-05
2 *687:CO 9.99137e-05
3 *484:C2 *484:A 2.39679e-06
4 *484:C2 *484:B1 1.22716e-05
5 *484:C2 *491:A2 2.25683e-05
6 *484:C2 *539:B1 0
7 *484:C2 *128:10 0.000118827
8 *484:C2 *182:90 1.60038e-06
9 *484:C2 *366:16 6.08869e-06
10 *476:A1 *484:C2 0
11 *482:A1 *484:C2 4.88571e-05
12 *676:A *484:C2 1.76415e-05
*RES
1 *687:CO *484:C2 34.6071 
*END

*D_NET *61 0.000262537
*CONN
*I *688:B I *D HA_X1
*I *664:ZN O *D XNOR2_X1
*CAP
1 *688:B 8.57338e-05
2 *664:ZN 8.57338e-05
3 *688:B *431:A 1.0164e-05
4 *688:B *684:A 2.37916e-06
5 *688:B *150:20 0
6 *688:B *336:8 0
7 *503:A *688:B 2.07643e-05
8 *681:B *688:B 5.01004e-05
9 *49:10 *688:B 7.66204e-06
*RES
1 *664:ZN *688:B 31.2143 
*END

*D_NET *62 0.000687729
*CONN
*I *457:B1 I *D AOI21_X1
*I *445:A I *D AOI21_X1
*I *688:CO O *D HA_X1
*CAP
1 *457:B1 6.4314e-05
2 *445:A 0
3 *688:CO 4.47234e-05
4 *62:12 0.000109037
5 *457:B1 *430:B2 7.19036e-06
6 *457:B1 *445:B1 1.25152e-05
7 *457:B1 *445:B2 4.11048e-05
8 *457:B1 *457:A 4.44127e-06
9 *457:B1 *133:24 3.01743e-06
10 *62:12 *430:B1 1.18232e-06
11 *62:12 *430:B2 2.39679e-06
12 *62:12 *431:B 1.51569e-05
13 *62:12 *445:B1 2.39679e-06
14 *62:12 *445:B2 0
15 *62:12 *149:14 1.3743e-06
16 *429:A *457:B1 7.40116e-05
17 *444:B1 *62:12 5.25005e-06
18 *456:A1 *457:B1 0.000203458
19 *458:A1 *457:B1 8.90634e-05
20 *48:16 *62:12 7.09501e-06
*RES
1 *688:CO *62:12 10.3571 
2 *62:12 *445:A 5 
3 *62:12 *457:B1 29.2143 
*END

*D_NET *63 0.00110195
*CONN
*I *445:B1 I *D AOI21_X1
*I *456:A3 I *D AND3_X1
*I *458:A3 I *D NAND3_X1
*I *431:A I *D XNOR2_X1
*I *688:S O *D HA_X1
*CAP
1 *445:B1 3.8886e-05
2 *456:A3 1.70963e-05
3 *458:A3 6.5996e-05
4 *431:A 4.956e-05
5 *688:S 0
6 *63:23 0.000116623
7 *63:21 0.00011703
8 *63:4 9.41739e-05
9 *431:A *671:B 0
10 *431:A *684:A 0.000143354
11 *431:A *688:A 5.46432e-05
12 *431:A *336:8 0
13 *445:B1 *430:B2 3.28163e-05
14 *445:B1 *445:B2 2.89018e-05
15 *458:A3 *460:A2 0
16 *458:A3 *461:B 0
17 *458:A3 *473:B1 1.60668e-05
18 *458:A3 *133:24 4.76429e-07
19 *458:A3 *160:10 6.32202e-06
20 *458:A3 *161:12 2.23871e-06
21 *63:21 *150:20 2.24783e-06
22 *63:23 *472:B1 8.47823e-06
23 *63:23 *473:B1 3.49085e-06
24 *429:A *445:B1 2.51997e-05
25 *429:A *63:21 4.21607e-06
26 *429:A *63:23 5.33077e-05
27 *444:B1 *445:B1 1.67775e-05
28 *444:B1 *63:21 0
29 *457:B1 *445:B1 1.25152e-05
30 *458:A1 *458:A3 7.03242e-05
31 *458:A1 *63:23 3.81944e-05
32 *458:A2 *458:A3 2.39679e-06
33 *688:B *431:A 1.0164e-05
34 *49:10 *431:A 9.57492e-07
35 *49:10 *456:A3 1.08036e-06
36 *49:10 *63:21 3.23723e-07
37 *55:8 *63:21 4.65233e-05
38 *55:12 *63:23 0
39 *56:17 *456:A3 2.39679e-06
40 *56:28 *456:A3 1.67775e-05
41 *62:12 *445:B1 2.39679e-06
*RES
1 *688:S *63:4 5 
2 *63:4 *431:A 23.4643 
3 *63:4 *63:21 10.25 
4 *63:21 *63:23 5 
5 *63:23 *458:A3 18.5714 
6 *63:23 *456:A3 11.75 
7 *63:21 *445:B1 16.0714 
*END

*D_NET *64 0.000605084
*CONN
*I *689:A I *D HA_X1
*I *600:B I *D MUX2_X1
*I *710:QN O *D DFFR_X1
*CAP
1 *689:A 1.03928e-05
2 *600:B 7.05892e-05
3 *710:QN 5.64952e-05
4 *64:10 0.000137477
5 *600:B *602:B2 7.66905e-06
6 *600:B *690:A 1.86809e-06
7 *600:B *690:B 2.53873e-05
8 *600:B *709:RN 2.05937e-05
9 *600:B *372:26 1.68643e-06
10 *600:B *373:22 2.43297e-05
11 *689:A *709:RN 1.56342e-05
12 *689:A *372:26 7.2187e-06
13 *64:10 *689:B 4.24402e-05
14 *64:10 *690:B 7.98408e-05
15 *64:10 *102:165 6.88366e-06
16 *64:10 *299:82 6.29746e-05
17 *64:10 *299:88 1.72405e-05
18 *64:10 *371:14 1.39834e-05
19 *64:10 *371:61 2.37916e-06
*RES
1 *710:QN *64:10 25.4286 
2 *64:10 *600:B 13.75 
3 *64:10 *689:A 6.75 
*END

*D_NET *65 0.000635681
*CONN
*I *592:A I *D INV_X1
*I *689:B I *D HA_X1
*I *591:ZN O *D AOI221_X1
*CAP
1 *592:A 2.42429e-05
2 *689:B 8.45393e-06
3 *591:ZN 0.000145234
4 *65:6 0.00017793
5 *592:A *600:A 1.25215e-05
6 *592:A *287:20 0
7 *689:B *299:82 4.24402e-05
8 *65:6 *560:A1 2.17184e-05
9 *65:6 *600:A 8.99096e-05
10 *65:6 *651:B 4.26314e-06
11 *65:6 *287:20 0
12 *65:6 *345:14 7.9958e-06
13 *65:6 *371:8 1.3688e-06
14 *65:6 *373:22 5.20514e-05
15 *65:6 *382:25 5.11118e-06
16 *64:10 *689:B 4.24402e-05
*RES
1 *591:ZN *65:6 22.75 
2 *65:6 *689:B 17.2857 
3 *65:6 *592:A 7.85714 
*END

*D_NET *66 0.000257434
*CONN
*I *602:B2 I *D OAI21_X1
*I *689:CO O *D HA_X1
*CAP
1 *602:B2 6.58423e-05
2 *689:CO 6.58423e-05
3 *602:B2 *466:A1 2.59223e-05
4 *602:B2 *602:B1 6.0406e-05
5 *602:B2 *603:A 1.9052e-05
6 *602:B2 *690:A 1.26998e-05
7 *602:B2 *371:28 0
8 *600:B *602:B2 7.66905e-06
*RES
1 *689:CO *602:B2 19.1786 
*END

*D_NET *67 0.000327484
*CONN
*I *600:A I *D MUX2_X1
*I *689:S O *D HA_X1
*CAP
1 *600:A 9.48577e-05
2 *689:S 9.48577e-05
3 *600:A *709:RN 6.37408e-06
4 *600:A *287:20 0
5 *600:A *373:22 2.89636e-05
6 *592:A *600:A 1.25215e-05
7 *65:6 *600:A 8.99096e-05
*RES
1 *689:S *600:A 22.4286 
*END

*D_NET *68 0.000128802
*CONN
*I *601:A1 I *D AOI22_X1
*I *690:CO O *D HA_X1
*CAP
1 *601:A1 4.84549e-05
2 *690:CO 4.84549e-05
3 *601:A1 *601:A2 2.86077e-05
4 *601:A1 *603:A 3.28455e-06
*RES
1 *690:CO *601:A1 15.7143 
*END

*D_NET *69 0.000827267
*CONN
*I *396:A I *D BUF_X4
*I *699:RN I *D DFFR_X1
*I *701:RN I *D DFFR_X1
*I *702:RN I *D DFFR_X1
*I *599:ZN O *D INV_X1
*CAP
1 *396:A 9.34029e-05
2 *699:RN 3.02181e-05
3 *701:RN 0
4 *702:RN 0.000137169
5 *599:ZN 9.84981e-05
6 *69:31 0.000207043
7 *69:10 0.000152245
8 *396:A *401:A 2.08416e-06
9 *396:A *524:B 0
10 *396:A *699:D 0
11 *396:A *701:D 1.30565e-05
12 *396:A *98:50 0
13 *396:A *98:52 0
14 *396:A *362:10 2.20333e-05
15 *699:RN *98:56 1.66752e-05
16 *699:RN *362:10 2.1585e-05
17 *702:RN *702:D 0
18 *702:RN *365:8 6.38328e-06
19 *69:10 *599:A 1.18547e-06
20 *69:10 *702:D 0
21 *69:10 *365:8 9.74263e-06
22 *69:31 *98:56 1.30978e-05
23 *69:31 *362:10 2.84765e-06
*RES
1 *599:ZN *69:10 15.1071 
2 *69:10 *702:RN 10.75 
3 *69:10 *701:RN 5 
4 *702:RN *69:31 19.75 
5 *69:31 *699:RN 15 
6 *69:31 *396:A 19.8571 
*END

*D_NET *70 0.000190871
*CONN
*I *701:D I *D DFFR_X1
*I *528:ZN O *D XNOR2_X1
*CAP
1 *701:D 4.13647e-05
2 *528:ZN 4.13647e-05
3 *701:D *98:50 0
4 *701:D *362:10 7.66675e-07
5 *701:D *364:10 9.43183e-05
6 *396:A *701:D 1.30565e-05
*RES
1 *528:ZN *701:D 26.25 
*END

*D_NET *72 0.000356871
*CONN
*I *699:D I *D DFFR_X1
*I *524:ZN O *D XNOR2_X1
*CAP
1 *699:D 0.00012414
2 *524:ZN 0.00012414
3 *699:D *401:A 0
4 *699:D *407:A 0
5 *699:D *524:A 6.92862e-06
6 *699:D *524:B 5.91186e-06
7 *699:D *98:56 9.57501e-05
8 *699:D *362:10 0
9 *699:D *362:12 0
10 *396:A *699:D 0
*RES
1 *524:ZN *699:D 34.25 
*END

*D_NET *73 0.000574286
*CONN
*I *698:D I *D DFFR_X1
*I *522:ZN O *D OAI21_X1
*CAP
1 *698:D 0.000202771
2 *522:ZN 0.000202771
3 *698:D dest_out[1] 1.08376e-05
4 *698:D *414:A 2.20624e-05
5 *698:D *432:A1 2.24783e-06
6 *698:D *433:A 2.58428e-06
7 *698:D *434:B2 0
8 *698:D *99:83 0
9 *698:D *99:99 3.65322e-06
10 *698:D *111:14 3.83453e-06
11 *698:D *272:16 0
12 *698:D *298:21 3.09143e-06
13 *698:D *383:31 9.03497e-05
14 *1:14 *698:D 3.00829e-05
*RES
1 *522:ZN *698:D 44.25 
*END

*D_NET *74 0.000117138
*CONN
*I *697:D I *D DFFR_X1
*I *521:ZN O *D XNOR2_X1
*CAP
1 *697:D 5.25677e-05
2 *521:ZN 5.25677e-05
3 *697:D *464:A 0
4 *697:D *581:A2 0
5 *697:D *697:RN 0
6 *697:D *99:43 1.0794e-06
7 *697:D *99:53 1.09235e-05
*RES
1 *521:ZN *697:D 15.3571 
*END

*D_NET *75 0.000283481
*CONN
*I *696:D I *D DFFR_X1
*I *519:ZN O *D NAND2_X1
*CAP
1 *696:D 0.000123971
2 *519:ZN 0.000123971
3 *696:D *519:A1 1.77697e-05
4 *696:D *695:D 0
5 *696:D *298:12 0
6 *696:D *383:31 1.77697e-05
*RES
1 *519:ZN *696:D 33.3214 
*END

*D_NET *76 0.000453512
*CONN
*I *695:D I *D DFFR_X1
*I *517:Z O *D MUX2_X1
*CAP
1 *695:D 0.000154939
2 *517:Z 0.000154939
3 *695:D *517:S 1.66988e-05
4 *695:D *99:83 9.77674e-06
5 *695:D *209:8 6.84295e-05
6 *695:D *298:21 7.72792e-06
7 *695:D *358:8 1.02238e-05
8 *696:D *695:D 0
9 *1:22 *695:D 3.07768e-05
*RES
1 *517:Z *695:D 37.2857 
*END

*D_NET *77 0.000218558
*CONN
*I *722:D I *D DFFR_X1
*I *514:Z O *D MUX2_X1
*CAP
1 *722:D 7.55843e-05
2 *514:Z 7.55843e-05
3 *722:D *707:RN 1.70588e-05
4 *722:D *78:14 1.52596e-05
5 *722:D *102:295 3.50707e-05
*RES
1 *514:Z *722:D 19.8571 
*END

*D_NET *78 0.00070511
*CONN
*I *721:D I *D DFFR_X1
*I *513:Z O *D MUX2_X1
*CAP
1 *721:D 0
2 *513:Z 0.000264817
3 *78:14 0.000264817
4 *78:14 *514:A 7.40328e-06
5 *78:14 *514:S 9.4103e-06
6 *78:14 *707:RN 9.8046e-06
7 *78:14 *721:RN 0
8 *78:14 *721:CK 6.66237e-05
9 *78:14 *98:144 0
10 *78:14 *98:155 0
11 *78:14 *98:168 0
12 *78:14 *102:273 5.59226e-06
13 *78:14 *102:280 3.16704e-05
14 *78:14 *102:295 0
15 *722:D *78:14 1.52596e-05
16 *24:12 *78:14 2.97112e-05
*RES
1 *513:Z *78:14 46.7143 
2 *78:14 *721:D 5 
*END

*D_NET *79 0.00012247
*CONN
*I *720:D I *D DFFR_X1
*I *512:Z O *D MUX2_X1
*CAP
1 *720:D 4.5313e-05
2 *512:Z 4.5313e-05
3 *720:D *437:A 0
4 *720:D *441:C2 7.19036e-06
5 *720:D *720:CK 9.08971e-06
6 *720:D *128:26 3.69562e-06
7 *720:D *344:14 1.18682e-05
*RES
1 *512:Z *720:D 15.3571 
*END

*D_NET *80 0.000132443
*CONN
*I *719:D I *D DFFR_X1
*I *511:Z O *D MUX2_X1
*CAP
1 *719:D 3.67217e-05
2 *511:Z 3.67217e-05
3 *719:D alu_result_out[4] 8.43215e-07
4 *719:D *98:12 4.21607e-06
5 *719:D *384:8 5.39404e-05
*RES
1 *511:Z *719:D 24.2143 
*END

*D_NET *81 0.000260269
*CONN
*I *717:D I *D DFFR_X1
*I *659:Z O *D MUX2_X1
*CAP
1 *717:D 9.23924e-05
2 *659:Z 9.23924e-05
3 *717:D *658:A 3.90891e-05
4 *717:D *659:B 2.93686e-05
5 *717:D *99:108 7.02617e-06
6 *717:D *345:27 0
*RES
1 *659:Z *717:D 29.4286 
*END

*D_NET *82 0.000205073
*CONN
*I *716:D I *D DFFR_X1
*I *658:Z O *D MUX2_X1
*CAP
1 *716:D 8.89392e-05
2 *658:Z 8.89392e-05
3 *716:D *658:A 7.87811e-06
4 *716:D *658:B 2.86102e-06
5 *716:D *99:99 1.64551e-05
*RES
1 *658:Z *716:D 28.75 
*END

*D_NET *83 0.000220304
*CONN
*I *715:D I *D DFFR_X1
*I *657:Z O *D MUX2_X1
*CAP
1 *715:D 8.57239e-05
2 *657:Z 8.57239e-05
3 *715:D *715:RN 0
4 *715:D *98:137 2.80734e-05
5 *715:D *98:144 3.65322e-06
6 *715:D *380:18 9.57492e-07
7 *715:D *385:16 1.61721e-05
*RES
1 *657:Z *715:D 19.8571 
*END

*D_NET *84 9.94773e-05
*CONN
*I *714:D I *D DFFR_X1
*I *656:Z O *D MUX2_X1
*CAP
1 *714:D 4.6889e-05
2 *656:Z 4.6889e-05
3 *714:D *704:D 0
4 *714:D *719:RN 5.69938e-06
5 *714:D *98:22 0
*RES
1 *656:Z *714:D 15.6429 
*END

*D_NET *85 0.000272299
*CONN
*I *713:D I *D DFFR_X1
*I *655:Z O *D MUX2_X1
*CAP
1 *713:D 6.84482e-05
2 *655:Z 6.84482e-05
3 *713:D *700:CK 0
4 *713:D *713:RN 1.11194e-05
5 *713:D *713:CK 0.000107281
6 *713:D *102:28 1.70028e-05
*RES
1 *655:Z *713:D 29.4286 
*END

*D_NET *86 7.94405e-05
*CONN
*I *712:D I *D DFFR_X1
*I *654:Z O *D MUX2_X1
*CAP
1 *712:D 3.2024e-05
2 *654:Z 3.2024e-05
3 *712:D *712:CK 9.27438e-06
4 *712:D *98:35 5.16069e-06
5 *712:D *298:87 9.57492e-07
*RES
1 *654:Z *712:D 14.2857 
*END

*D_NET *87 7.1737e-05
*CONN
*I *711:D I *D DFFR_X1
*I *653:Z O *D MUX2_X1
*CAP
1 *711:D 3.4911e-05
2 *653:Z 3.4911e-05
3 *711:D *501:A 1.91498e-06
*RES
1 *653:Z *711:D 14.2857 
*END

*D_NET *88 0.000165852
*CONN
*I *709:D I *D DFFR_X1
*I *652:Z O *D MUX2_X1
*CAP
1 *709:D 7.8507e-05
2 *652:Z 7.8507e-05
3 *709:D *642:A1 0
4 *709:D *652:S 8.33759e-07
5 *709:D *287:20 7.1606e-06
6 *709:D *299:82 0
7 *709:D *338:44 0
8 *709:D *346:12 8.43215e-07
9 *709:D *372:49 0
*RES
1 *652:Z *709:D 28.0714 
*END

*D_NET *89 0.000504309
*CONN
*I *708:D I *D DFFR_X1
*I *651:Z O *D MUX2_X1
*CAP
1 *708:D 0.000119684
2 *651:Z 0.000119684
3 *708:D *563:B1 0
4 *708:D *659:B 3.54727e-05
5 *708:D *102:152 8.38481e-05
6 *708:D *287:18 6.70982e-05
7 *708:D *338:16 0
8 *708:D *345:27 0
9 *708:D *371:28 6.89712e-05
10 *708:D *382:25 9.55059e-06
*RES
1 *651:Z *708:D 37.8572 
*END

*D_NET *90 6.6554e-05
*CONN
*I *707:D I *D DFFR_X1
*I *650:Z O *D MUX2_X1
*CAP
1 *707:D 2.30942e-05
2 *650:Z 2.30942e-05
3 *707:D *98:168 0
4 *707:D *386:14 2.03657e-05
*RES
1 *650:Z *707:D 22.9643 
*END

*D_NET *91 9.51774e-05
*CONN
*I *706:D I *D DFFR_X1
*I *649:Z O *D MUX2_X1
*CAP
1 *706:D 2.91341e-05
2 *649:Z 2.91341e-05
3 *706:D *514:S 1.62918e-05
4 *706:D *299:54 3.78929e-06
5 *706:D *369:10 1.68282e-05
*RES
1 *649:Z *706:D 24.3214 
*END

*D_NET *92 0.000261496
*CONN
*I *705:D I *D DFFR_X1
*I *648:Z O *D MUX2_X1
*CAP
1 *705:D 8.87047e-05
2 *648:Z 8.87047e-05
3 *705:D *648:A 0
4 *705:D *705:RN 1.27531e-05
5 *705:D *125:10 1.19839e-05
6 *705:D *125:47 9.05224e-06
7 *705:D *128:51 4.77161e-05
8 *705:D *345:12 2.58076e-06
*RES
1 *648:Z *705:D 30.7857 
*END

*D_NET *93 0.000100194
*CONN
*I *704:D I *D DFFR_X1
*I *647:Z O *D MUX2_X1
*CAP
1 *704:D 5.00971e-05
2 *647:Z 5.00971e-05
3 *704:D *704:CK 0
4 *704:D *98:22 0
5 *704:D *102:208 0
6 *714:D *704:D 0
*RES
1 *647:Z *704:D 15.625 
*END

*D_NET *94 0.000421662
*CONN
*I *703:D I *D DFFR_X1
*I *646:Z O *D MUX2_X1
*CAP
1 *703:D 0.000126536
2 *646:Z 0.000126536
3 *703:D *539:B2 0
4 *703:D *539:C2 8.06346e-05
5 *703:D *646:B 3.00727e-05
6 *703:D *653:A 1.07633e-05
7 *703:D *703:RN 1.86809e-06
8 *703:D *298:60 0
9 *703:D *340:29 4.5252e-05
*RES
1 *646:Z *703:D 36.4643 
*END

*D_NET *96 0.000600548
*CONN
*I *710:D I *D DFFR_X1
*I *644:ZN O *D AOI21_X2
*CAP
1 *710:D 0.000159989
2 *644:ZN 0.000159989
3 *710:D *567:A 0
4 *710:D *638:A2 9.48234e-05
5 *710:D *644:A 7.33304e-05
6 *710:D *659:A 0.000108762
7 *710:D *710:CK 3.65322e-06
*RES
1 *644:ZN *710:D 34.1786 
*END

*D_NET *97 0.000211674
*CONN
*I *718:D I *D DFFR_X1
*I *640:ZN O *D AND2_X1
*CAP
1 *718:D 8.31912e-05
2 *640:ZN 8.31912e-05
3 *718:D *99:70 4.52914e-05
*RES
1 *640:ZN *718:D 19.9643 
*END

*D_NET *101 0.00349684
*CONN
*I *397:A2 I *D NAND2_X1
*I *487:B2 I *D AOI21_X1
*I *565:B I *D MUX2_X1
*I *548:A2 I *D AND4_X1
*I *543:A2 I *D AND4_X1
*I *477:A1 I *D NAND2_X1
*I *411:A2 I *D NOR2_X1
*I *533:B2 I *D OAI21_X1
*I *489:C1 I *D OAI221_X1
*I *556:A I *D AOI211_X2
*I *561:A2 I *D NOR2_X1
*I *579:A1 I *D NOR2_X1
*I *395:ZN O *D INV_X1
*CAP
1 *397:A2 8.74929e-05
2 *487:B2 0
3 *565:B 0.000102666
4 *548:A2 2.17811e-05
5 *543:A2 0
6 *477:A1 0
7 *411:A2 0
8 *533:B2 2.28103e-05
9 *489:C1 0
10 *556:A 5.14577e-05
11 *561:A2 0
12 *579:A1 7.19427e-05
13 *395:ZN 0
14 *101:107 8.26207e-05
15 *101:99 0.000195474
16 *101:92 0.000102126
17 *101:77 8.3778e-05
18 *101:68 0.000155982
19 *101:55 0.00016048
20 *101:49 0.000124526
21 *101:45 0.000183057
22 *101:23 0.000142805
23 *101:8 0.000187003
24 *101:6 3.56802e-05
25 *397:A2 *397:A1 2.75346e-06
26 *397:A2 *419:A1 0
27 *397:A2 *111:71 1.55671e-05
28 *397:A2 *112:65 2.08098e-06
29 *397:A2 *112:89 1.08366e-05
30 *397:A2 *358:88 2.08098e-06
31 *397:A2 *358:142 3.1154e-05
32 *397:A2 *358:199 3.95661e-05
33 *397:A2 *361:126 2.39345e-05
34 *397:A2 *361:132 1.16042e-05
35 *533:B2 *412:A1 3.76691e-05
36 *533:B2 *499:A3 6.38328e-07
37 *533:B2 *533:B1 1.21774e-06
38 *533:B2 *219:14 3.21622e-05
39 *548:A2 *543:A3 5.06354e-05
40 *556:A *554:A1 3.23338e-05
41 *556:A *554:A2 3.09143e-06
42 *556:A *555:B2 6.48216e-07
43 *556:A *557:B1 2.13169e-05
44 *556:A *562:A2 4.33502e-05
45 *556:A *238:10 6.78878e-05
46 *556:A *361:271 2.16072e-07
47 *565:B *509:B2 8.43215e-07
48 *565:B *541:A1 7.72537e-06
49 *565:B *565:A 2.52076e-06
50 *565:B *566:A2 6.48216e-07
51 *565:B *105:73 0
52 *565:B *224:8 2.59394e-05
53 *565:B *361:169 6.59103e-05
54 *565:B *361:184 2.84119e-05
55 *579:A1 *408:A1 1.0038e-05
56 *579:A1 *408:A2 4.29713e-06
57 *579:A1 *111:71 2.24353e-05
58 *579:A1 *141:12 3.02372e-05
59 *579:A1 *358:66 2.39679e-06
60 *579:A1 *358:75 5.19647e-05
61 *579:A1 *358:88 4.16195e-06
62 *579:A1 *359:147 5.10087e-06
63 *579:A1 *361:256 2.16072e-07
64 *579:A1 *361:264 6.3924e-06
65 *101:8 *111:71 9.24246e-06
66 *101:8 *115:10 6.6142e-05
67 *101:8 *141:12 7.01433e-05
68 *101:8 *358:88 2.0725e-06
69 *101:23 *408:A2 0
70 *101:23 *553:A1 0
71 *101:23 *554:A2 6.48216e-07
72 *101:23 *555:B2 2.16072e-07
73 *101:23 *111:71 7.029e-07
74 *101:23 *115:10 2.41376e-06
75 *101:23 *359:162 0
76 *101:23 *360:87 0
77 *101:45 *111:71 2.17261e-07
78 *101:45 *115:10 2.99872e-05
79 *101:45 *115:43 1.18107e-05
80 *101:45 *358:88 7.47756e-06
81 *101:49 *423:A1 7.9624e-06
82 *101:49 *105:25 2.11452e-05
83 *101:49 *358:94 0.000110413
84 *101:49 *359:127 1.01265e-05
85 *101:49 *360:38 3.09143e-06
86 *101:49 *360:51 6.56007e-06
87 *101:55 *489:A 3.40468e-05
88 *101:55 *489:B2 0
89 *101:55 *360:38 2.89018e-05
90 *101:55 *360:161 9.84176e-05
91 *101:68 *412:A1 3.01743e-06
92 *101:68 *412:A2 1.45779e-05
93 *101:68 *489:C2 8.43215e-07
94 *101:68 *537:A1 2.39679e-06
95 *101:68 *105:12 0
96 *101:68 *112:65 4.11295e-06
97 *101:68 *128:10 6.40298e-05
98 *101:68 *190:20 3.50758e-05
99 *101:68 *358:148 2.44587e-05
100 *101:68 *360:161 1.68643e-06
101 *101:77 *412:A1 2.15524e-05
102 *101:77 *412:A2 1.87369e-06
103 *101:77 *219:14 8.44023e-06
104 *101:92 *411:A1 7.72537e-06
105 *101:92 *477:A2 4.82872e-06
106 *101:92 *478:B1 4.18166e-06
107 *101:92 *479:A2 3.6321e-07
108 *101:92 *499:A3 0
109 *101:92 *532:B2 2.08416e-06
110 *101:92 *117:10 1.93661e-06
111 *101:92 *219:14 0
112 *101:99 *477:A2 7.13994e-06
113 *101:99 *478:B2 0
114 *101:107 *477:A2 2.07326e-06
115 *101:107 *543:A3 2.75346e-06
116 *101:107 *157:8 1.26361e-05
117 *101:107 *223:16 0
118 *101:107 *264:14 7.25923e-06
119 *399:A *101:68 6.70982e-05
120 *561:A1 *556:A 6.76378e-05
121 *604:A3 *101:107 5.86875e-06
122 *680:B *101:107 0
123 *1:74 *565:B 0
124 *1:74 *101:99 0
125 *1:74 *101:107 2.93638e-05
126 *1:81 *548:A2 4.78819e-05
127 *1:81 *565:B 0
128 *1:81 *101:107 2.75346e-06
129 *1:85 *565:B 2.87703e-06
130 *99:31 *397:A2 0
131 *99:43 *101:23 4.90711e-06
*RES
1 *395:ZN *101:6 10 
2 *101:6 *101:8 5 
3 *101:8 *579:A1 20.3929 
4 *101:8 *101:23 13.25 
5 *101:23 *561:A2 5 
6 *101:23 *556:A 24.6429 
7 *101:6 *101:45 2.28572 
8 *101:45 *101:49 17.25 
9 *101:49 *101:55 17.0357 
10 *101:55 *489:C1 5 
11 *101:55 *101:68 26.8929 
12 *101:68 *533:B2 8.75 
13 *101:68 *101:77 2.25 
14 *101:77 *411:A2 5 
15 *101:77 *101:92 7.78572 
16 *101:92 *477:A1 5 
17 *101:92 *101:99 3.25 
18 *101:99 *101:107 17.0714 
19 *101:107 *543:A2 5 
20 *101:107 *548:A2 9.75 
21 *101:99 *565:B 17.75 
22 *101:49 *487:B2 5 
23 *101:45 *397:A2 22.8214 
*END

*D_NET *103 0.000228058
*CONN
*I *403:A1 I *D NOR2_X1
*I *419:A2 I *D NOR2_X1
*I *397:ZN O *D NAND2_X1
*CAP
1 *403:A1 3.56185e-05
2 *419:A2 1.11335e-05
3 *397:ZN 8.11855e-06
4 *103:8 5.48705e-05
5 *403:A1 *403:A2 2.94435e-05
6 *403:A1 *416:A1 2.7349e-05
7 *403:A1 *416:A2 4.7875e-06
8 *403:A1 *476:A2 1.43238e-06
9 *403:A1 *541:A1 0
10 *403:A1 *112:89 4.04557e-06
11 *403:A1 *112:104 1.56073e-06
12 *403:A1 *124:8 3.28559e-05
13 *419:A2 *397:A1 6.0887e-06
14 *419:A2 *416:A1 6.38328e-07
15 *419:A2 *416:A2 1.43238e-06
16 *419:A2 *419:A1 1.21774e-06
17 *419:A2 *124:8 3.09143e-06
18 *419:A2 *358:203 1.27666e-06
19 *103:8 *541:A1 0
20 *103:8 *112:89 3.09682e-06
*RES
1 *397:ZN *103:8 10.9286 
2 *103:8 *419:A2 11.75 
3 *103:8 *403:A1 15.5357 
*END

*D_NET *105 0.00252119
*CONN
*I *454:A1 I *D NOR3_X1
*I *402:A1 I *D NAND2_X1
*I *508:A1 I *D OAI22_X1
*I *420:A1 I *D NAND2_X1
*I *532:B2 I *D AOI21_X1
*I *538:C2 I *D AOI221_X4
*I *556:C2 I *D AOI211_X2
*I *552:A1 I *D AND3_X1
*I *423:A1 I *D NOR3_X2
*I *399:ZN O *D INV_X2
*CAP
1 *454:A1 1.8828e-05
2 *402:A1 0
3 *508:A1 5.81509e-06
4 *420:A1 4.54248e-05
5 *532:B2 0.000105839
6 *538:C2 4.66824e-05
7 *556:C2 8.16605e-05
8 *552:A1 0
9 *423:A1 9.52559e-06
10 *399:ZN 0
11 *105:77 0.000172817
12 *105:73 0.000182107
13 *105:65 0.000132979
14 *105:25 0.000183192
15 *105:12 0.000241168
16 *105:8 0.000193762
17 *105:6 0.000122808
18 *105:4 5.36211e-05
19 *420:A1 *508:B1 2.16072e-07
20 *420:A1 *124:8 4.77786e-06
21 *420:A1 *124:21 8.43215e-07
22 *420:A1 *125:10 3.19164e-07
23 *423:A1 *359:127 2.75346e-06
24 *423:A1 *359:136 1.92742e-05
25 *454:A1 *416:A1 2.75346e-06
26 *454:A1 *476:A2 1.24761e-05
27 *454:A1 *112:104 1.32348e-05
28 *454:A1 *120:32 4.25381e-06
29 *508:A1 *508:A2 1.30565e-05
30 *508:A1 *508:B1 1.21774e-06
31 *532:B2 *412:A1 0.000104431
32 *532:B2 *412:A2 1.26998e-05
33 *532:B2 *478:A 5.29648e-07
34 *532:B2 *479:A2 1.52083e-06
35 *532:B2 *538:B2 4.79629e-05
36 *532:B2 *117:10 2.39679e-06
37 *532:B2 *216:12 2.39679e-06
38 *532:B2 *358:148 2.80517e-05
39 *532:B2 *361:208 0
40 *538:C2 *120:32 7.59573e-05
41 *538:C2 *361:208 1.04788e-05
42 *538:C2 *361:214 2.75346e-06
43 *556:C2 *466:B1 2.05348e-05
44 *556:C2 *552:A2 2.39679e-06
45 *556:C2 *552:A3 1.21326e-05
46 *556:C2 *556:C1 4.4892e-05
47 *556:C2 *595:A 0
48 *556:C2 *234:6 4.73284e-06
49 *556:C2 *236:8 0
50 *556:C2 *360:81 4.79358e-06
51 *105:8 *358:148 1.50276e-05
52 *105:12 *112:12 3.94272e-06
53 *105:12 *112:65 6.39482e-06
54 *105:12 *128:10 0
55 *105:12 *190:20 1.07121e-06
56 *105:12 *358:148 2.82591e-05
57 *105:25 *466:B1 8.83157e-06
58 *105:25 *552:A2 4.97191e-06
59 *105:25 *359:136 3.11453e-05
60 *105:25 *359:145 1.53913e-05
61 *105:25 *359:207 5.96952e-05
62 *105:25 *360:81 2.39679e-06
63 *105:25 *360:87 5.91602e-05
64 *105:65 *476:A2 1.32101e-05
65 *105:65 *478:B1 0
66 *105:65 *479:A2 0
67 *105:65 *117:10 0
68 *105:65 *120:32 1.02269e-05
69 *105:73 *402:A2 5.99828e-06
70 *105:73 *476:A2 4.6613e-07
71 *105:73 *478:A 1.16762e-06
72 *105:73 *478:B2 7.81287e-06
73 *105:73 *361:154 1.40275e-05
74 *105:73 *361:169 8.15225e-06
75 *105:77 *402:A2 2.75346e-06
76 *105:77 *403:A2 7.09501e-06
77 *105:77 *416:A2 1.56498e-05
78 *105:77 *417:A2 2.11262e-05
79 *105:77 *476:A2 1.11882e-05
80 *105:77 *478:B2 0
81 *105:77 *508:A2 6.17042e-05
82 *105:77 *565:A 3.83909e-06
83 *105:77 *124:8 0
84 *105:77 *361:169 0
85 *105:77 *361:184 0
86 *399:A *532:B2 0
87 *399:A *538:C2 1.09316e-05
88 *476:A1 *532:B2 5.73913e-06
89 *476:A1 *105:65 1.27666e-06
90 *565:B *105:73 0
91 *99:43 *105:25 1.28122e-06
92 *101:49 *423:A1 7.9624e-06
93 *101:49 *105:25 2.11452e-05
94 *101:68 *105:12 0
95 *101:92 *532:B2 2.08416e-06
*RES
1 *399:ZN *105:4 5 
2 *105:4 *105:6 5 
3 *105:6 *105:8 2.28572 
4 *105:8 *105:12 18.8214 
5 *105:12 *423:A1 6.75 
6 *105:12 *105:25 14.4286 
7 *105:25 *552:A1 5 
8 *105:25 *556:C2 25.0714 
9 *105:8 *538:C2 17.25 
10 *105:6 *532:B2 26.0714 
11 *105:4 *105:65 6.25 
12 *105:65 *105:73 16.3929 
13 *105:73 *105:77 14.6786 
14 *105:77 *420:A1 9.89286 
15 *105:77 *508:A1 6.25 
16 *105:73 *402:A1 5 
17 *105:65 *454:A1 7.75 
*END

*D_NET *108 0.000379401
*CONN
*I *403:A2 I *D NOR2_X1
*I *478:B2 I *D OAI21_X1
*I *402:ZN O *D NAND2_X1
*CAP
1 *403:A2 8.81118e-05
2 *478:B2 4.06127e-05
3 *402:ZN 0.000128725
4 *403:A2 *416:A1 8.78469e-06
5 *403:A2 *416:A2 1.76028e-05
6 *403:A2 *450:A1 1.40196e-06
7 *403:A2 *541:A1 2.57188e-06
8 *403:A2 *124:8 2.82896e-05
9 *403:A2 *157:8 1.11228e-06
10 *403:A2 *358:203 0
11 *403:A2 *361:169 0
12 *478:B2 *476:A2 1.23592e-05
13 *478:B2 *477:A2 2.23871e-06
14 *478:B2 *478:B1 8.43215e-07
15 *403:A1 *403:A2 2.94435e-05
16 *476:A1 *478:B2 2.39679e-06
17 *101:99 *478:B2 0
18 *105:73 *478:B2 7.81287e-06
19 *105:77 *403:A2 7.09501e-06
20 *105:77 *478:B2 0
*RES
1 *402:ZN *478:B2 14.9286 
2 *402:ZN *403:A2 29.8571 
*END

*D_NET *109 0.00441054
*CONN
*I *492:A2 I *D AOI222_X1
*I *439:A2 I *D AOI222_X1
*I *505:A2 I *D AOI22_X1
*I *413:A2 I *D AOI222_X1
*I *452:A2 I *D AOI22_X1
*I *466:A2 I *D AOI22_X1
*I *403:ZN O *D NOR2_X1
*CAP
1 *492:A2 0.000175492
2 *439:A2 0.000115319
3 *505:A2 0.000155225
4 *413:A2 0
5 *452:A2 0
6 *466:A2 0.000110957
7 *403:ZN 1.6798e-05
8 *109:59 0.000306637
9 *109:50 9.0025e-05
10 *109:44 0.000403963
11 *109:18 0.000295592
12 *109:8 0.000375973
13 *439:A2 *439:B1 3.09411e-06
14 *439:A2 *439:C1 2.44421e-06
15 *439:A2 *504:B2 0.000105625
16 *439:A2 *544:C1 5.77309e-05
17 *439:A2 *182:65 0
18 *439:A2 *369:18 2.30833e-05
19 *439:A2 *369:20 5.91602e-05
20 *466:A2 *462:B2 2.9183e-05
21 *466:A2 *463:A2 5.14952e-05
22 *466:A2 *466:B1 2.76637e-06
23 *466:A2 *601:B1 6.69339e-05
24 *466:A2 *154:34 5.62265e-05
25 *466:A2 *358:205 0.000116574
26 *492:A2 *428:B2 1.58001e-05
27 *492:A2 *484:B2 0.000104619
28 *492:A2 *511:S 7.83546e-06
29 *492:A2 *542:B 1.04473e-05
30 *492:A2 *543:A4 0
31 *492:A2 *549:C1 7.86518e-06
32 *492:A2 *682:A 1.88479e-06
33 *492:A2 *128:26 6.12193e-05
34 *492:A2 *157:68 0
35 *492:A2 *182:65 1.4125e-05
36 *505:A2 *504:A1 6.48629e-05
37 *505:A2 *505:A1 2.39679e-06
38 *505:A2 *506:A 6.38328e-07
39 *505:A2 *506:B1 0
40 *505:A2 *547:A 8.2264e-05
41 *505:A2 *547:B 3.28688e-05
42 *505:A2 *550:A2 1.23811e-06
43 *505:A2 *595:C2 1.27068e-06
44 *505:A2 *128:51 5.36507e-05
45 *505:A2 *228:28 2.38892e-05
46 *505:A2 *335:12 1.19193e-05
47 *505:A2 *387:18 0
48 *109:8 *476:A2 1.77361e-06
49 *109:8 *124:8 1.63326e-05
50 *109:18 *508:A2 4.03863e-05
51 *109:18 *534:B1 1.3226e-05
52 *109:18 *154:34 7.70913e-05
53 *109:18 *257:16 0
54 *109:18 *299:76 1.89581e-05
55 *109:18 *348:14 1.32519e-05
56 *109:18 *358:205 2.94435e-05
57 *109:18 *358:229 5.24354e-05
58 *109:44 *417:A2 0.000275592
59 *109:44 *508:A2 8.63042e-05
60 *109:44 *509:B2 1.90574e-06
61 *109:44 *534:B1 6.32461e-06
62 *109:44 *541:A1 3.18639e-06
63 *109:44 *543:A4 0
64 *109:44 *549:B1 0
65 *109:44 *568:S 0.000125274
66 *109:44 *241:10 9.00974e-05
67 *109:44 *361:184 2.31477e-05
68 *109:50 *504:A1 3.23723e-07
69 *109:50 *549:B1 7.21335e-06
70 *109:50 *549:C1 2.43548e-06
71 *109:50 *550:A1 4.69702e-07
72 *109:50 *182:65 3.62016e-05
73 *109:50 *230:16 2.66553e-05
74 *109:50 *380:42 9.01846e-07
75 *109:59 *421:A 1.60038e-06
76 *109:59 *550:A1 1.21774e-06
77 *109:59 *550:A2 1.11435e-06
78 *413:B2 *439:A2 2.52965e-06
79 *413:B2 *109:50 2.75346e-06
80 *413:B2 *109:59 3.20238e-05
81 *418:A *439:A2 2.17903e-06
82 *427:A *492:A2 4.37043e-05
83 *449:A *466:A2 3.89107e-05
84 *468:B2 *466:A2 1.25603e-06
85 *482:A1 *492:A2 4.62991e-06
86 *482:A1 *109:44 1.60598e-05
87 *534:B2 *109:44 6.53631e-06
88 *546:A *505:A2 1.73047e-05
89 *559:A *466:A2 1.7419e-05
90 *676:A *492:A2 3.22834e-06
91 *1:98 *109:44 2.47896e-06
92 *3:20 *492:A2 3.47345e-05
93 *6:20 *492:A2 1.3688e-06
94 *15:14 *466:A2 5.84443e-05
95 *20:22 *439:A2 4.0052e-05
96 *20:22 *109:59 5.30816e-06
97 *25:6 *505:A2 5.62375e-06
98 *98:12 *492:A2 2.04127e-06
*RES
1 *403:ZN *109:8 11.75 
2 *109:8 *109:18 21.8571 
3 *109:18 *466:A2 38.7143 
4 *109:18 *452:A2 10 
5 *109:8 *109:44 26.7143 
6 *109:44 *109:50 12 
7 *109:50 *413:A2 5 
8 *109:50 *109:59 4.67857 
9 *109:59 *505:A2 35.4643 
10 *109:59 *439:A2 22.6786 
11 *109:44 *492:A2 33.3214 
*END

*D_NET *111 0.00308118
*CONN
*I *509:B2 I *D AOI221_X1
*I *534:A I *D OAI21_X2
*I *406:A2 I *D NAND2_X2
*I *422:A I *D MUX2_X1
*I *434:A I *D OAI21_X1
*I *627:A1 I *D NAND3_X1
*I *613:A1 I *D NAND2_X1
*I *522:A I *D OAI21_X1
*I *405:ZN O *D INV_X4
*CAP
1 *509:B2 0.000227133
2 *534:A 0
3 *406:A2 0
4 *422:A 0
5 *434:A 0
6 *627:A1 7.49549e-05
7 *613:A1 0
8 *522:A 0
9 *405:ZN 1.15309e-05
10 *111:82 0.000374172
11 *111:71 0.000286561
12 *111:54 0.000169382
13 *111:43 4.40705e-05
14 *111:29 0.000135764
15 *111:14 0.000104586
16 *111:8 6.95181e-05
17 *509:B2 *394:A 9.62051e-07
18 *509:B2 *451:A1 1.15782e-06
19 *509:B2 *509:B1 2.92998e-05
20 *509:B2 *534:B1 1.65516e-05
21 *509:B2 *566:A2 2.39679e-06
22 *509:B2 *573:A1 3.19164e-07
23 *509:B2 *575:A1 4.79372e-06
24 *509:B2 *575:A2 1.25215e-05
25 *509:B2 *220:18 0.000128468
26 *509:B2 *348:18 1.28122e-06
27 *509:B2 *361:184 6.07779e-06
28 *627:A1 *563:B2 6.85774e-07
29 *627:A1 *612:A2 8.43215e-07
30 *627:A1 *618:A 2.54212e-05
31 *627:A1 *618:C1 7.19036e-06
32 *627:A1 *618:C2 7.19036e-06
33 *627:A1 *627:A2 6.76149e-05
34 *627:A1 *627:A3 1.54337e-05
35 *111:8 *483:A 4.24381e-05
36 *111:8 *138:12 1.88334e-06
37 *111:8 *361:36 6.56745e-06
38 *111:14 *433:A 5.0538e-05
39 *111:14 *434:B2 2.39679e-06
40 *111:14 *138:23 6.48216e-07
41 *111:14 *383:31 0
42 *111:29 *433:A 3.28137e-06
43 *111:29 *522:B2 1.17157e-05
44 *111:29 *612:A1 2.16072e-07
45 *111:29 *612:A2 2.52965e-06
46 *111:29 *627:A2 8.43215e-07
47 *111:29 *138:40 2.35258e-05
48 *111:29 *272:16 8.87679e-06
49 *111:29 *274:12 1.58752e-05
50 *111:29 *383:31 2.50637e-05
51 *111:43 *432:A1 2.72417e-06
52 *111:43 *483:A 5.46453e-05
53 *111:43 *138:12 1.36811e-05
54 *111:54 *409:A2 0
55 *111:54 *432:A1 1.61002e-06
56 *111:54 *436:A2 9.36313e-05
57 *111:54 *483:A 6.81795e-05
58 *111:71 *408:A2 0
59 *111:71 *112:8 7.81287e-06
60 *111:71 *112:89 1.12479e-05
61 *111:71 *115:10 9.0798e-05
62 *111:71 *115:43 1.58481e-05
63 *111:71 *141:12 6.51995e-05
64 *111:71 *358:66 2.39679e-06
65 *111:71 *358:75 5.43615e-05
66 *111:71 *359:147 0.000117893
67 *111:71 *359:207 7.84414e-06
68 *111:71 *360:51 3.13062e-05
69 *111:71 *361:132 0
70 *111:82 *406:A1 1.26998e-05
71 *111:82 *451:A1 1.90334e-05
72 *111:82 *466:B1 6.07323e-06
73 *111:82 *508:A2 1.37382e-05
74 *111:82 *534:B1 5.62816e-06
75 *111:82 *360:51 3.46864e-06
76 *111:82 *360:66 3.76649e-05
77 *111:82 *360:75 7.72537e-06
78 *111:82 *360:137 0
79 *393:A *111:82 6.38328e-07
80 *397:A2 *111:71 1.55671e-05
81 *507:A2 *509:B2 1.59479e-05
82 *534:B2 *509:B2 0.000165177
83 *565:B *509:B2 8.43215e-07
84 *579:A1 *111:71 2.24353e-05
85 *698:D *111:14 3.83453e-06
86 *30:18 *509:B2 1.52081e-05
87 *99:31 *111:71 4.88016e-06
88 *99:31 *111:82 3.72284e-05
89 *99:43 *111:71 2.845e-06
90 *100:8 *509:B2 5.91186e-06
91 *100:21 *509:B2 6.47121e-06
92 *100:21 *111:82 3.07064e-06
93 *100:39 *509:B2 1.56126e-06
94 *101:8 *111:71 9.24246e-06
95 *101:23 *111:71 7.029e-07
96 *101:45 *111:71 2.17261e-07
97 *109:44 *509:B2 1.90574e-06
*RES
1 *405:ZN *111:8 12.2857 
2 *111:8 *111:14 10.6786 
3 *111:14 *522:A 5 
4 *111:14 *111:29 18.2857 
5 *111:29 *613:A1 5 
6 *111:29 *627:A1 15.25 
7 *111:8 *111:43 2.96429 
8 *111:43 *434:A 10 
9 *111:43 *111:54 10.6786 
10 *111:54 *422:A 5 
11 *111:54 *111:71 32.5357 
12 *111:71 *406:A2 5 
13 *111:71 *111:82 23.6429 
14 *111:82 *534:A 10 
15 *111:82 *509:B2 39.5714 
*END

*D_NET *112 0.00266884
*CONN
*I *416:A1 I *D NOR2_X2
*I *454:A2 I *D NOR3_X1
*I *419:A1 I *D NOR2_X1
*I *410:A I *D INV_X1
*I *639:A1 I *D NAND4_X1
*I *409:A1 I *D NOR2_X1
*I *422:B I *D MUX2_X1
*I *436:A2 I *D AOI222_X4
*I *406:ZN O *D NAND2_X2
*CAP
1 *416:A1 5.30141e-05
2 *454:A2 0
3 *419:A1 8.94557e-06
4 *410:A 2.4797e-05
5 *639:A1 2.28764e-05
6 *409:A1 0
7 *422:B 0
8 *436:A2 0.000110232
9 *406:ZN 0
10 *112:104 6.96808e-05
11 *112:89 9.98937e-05
12 *112:65 0.000239764
13 *112:16 0.00015592
14 *112:12 0.000111712
15 *112:8 0.000294482
16 *112:4 0.000110648
17 *410:A *489:C2 3.9733e-06
18 *410:A *641:A2 3.01743e-06
19 *410:A *212:12 1.81046e-05
20 *410:A *216:8 1.72191e-05
21 *410:A *359:105 3.0203e-05
22 *416:A1 *416:A2 5.50692e-06
23 *416:A1 *476:A2 1.49912e-05
24 *416:A1 *541:A1 1.81555e-05
25 *416:A1 *124:8 2.24822e-06
26 *419:A1 *120:32 1.32348e-05
27 *436:A2 *409:A2 0
28 *436:A2 *432:A1 1.39858e-05
29 *436:A2 *434:B2 1.10231e-05
30 *436:A2 *436:B1 4.87933e-06
31 *436:A2 *436:B2 3.67779e-05
32 *436:A2 *485:A2 0
33 *436:A2 *138:12 3.09411e-06
34 *436:A2 *140:10 0
35 *436:A2 *141:12 3.09411e-06
36 *436:A2 *358:66 2.84765e-06
37 *436:A2 *359:36 2.75346e-06
38 *436:A2 *361:36 9.77674e-06
39 *436:A2 *361:38 2.90909e-06
40 *436:A2 *361:256 7.86103e-06
41 *639:A1 *641:A2 6.50033e-06
42 *639:A1 *212:12 1.11198e-05
43 *639:A1 *359:70 1.72063e-05
44 *639:A1 *359:92 4.95373e-05
45 *639:A1 *359:105 1.2203e-05
46 *112:8 *358:199 0
47 *112:8 *360:51 1.10823e-05
48 *112:12 *358:88 0.000115206
49 *112:12 *358:142 3.74027e-05
50 *112:16 *141:12 7.98366e-06
51 *112:65 *415:A1 4.8796e-05
52 *112:65 *415:A2 7.19036e-06
53 *112:65 *498:A1 2.94435e-05
54 *112:65 *530:A1 4.32144e-07
55 *112:65 *537:A1 1.10784e-05
56 *112:65 *570:A 6.56007e-06
57 *112:65 *120:32 2.63296e-05
58 *112:65 *190:20 3.19164e-07
59 *112:65 *358:142 0.000107663
60 *112:65 *358:148 4.33502e-05
61 *112:65 *360:161 7.72537e-06
62 *112:65 *360:167 2.82896e-05
63 *112:65 *361:126 9.65069e-05
64 *112:89 *450:A1 0
65 *112:89 *181:23 0
66 *112:89 *358:199 0
67 *112:89 *361:132 6.70962e-05
68 *112:89 *361:154 5.62265e-05
69 *112:104 *416:A2 5.60111e-06
70 *112:104 *120:32 1.32348e-05
71 *112:104 *361:154 2.51997e-05
72 *397:A2 *419:A1 0
73 *397:A2 *112:65 2.08098e-06
74 *397:A2 *112:89 1.08366e-05
75 *399:A *112:65 2.2113e-05
76 *403:A1 *416:A1 2.7349e-05
77 *403:A1 *112:89 4.04557e-06
78 *403:A1 *112:104 1.56073e-06
79 *403:A2 *416:A1 8.78469e-06
80 *419:A2 *416:A1 6.38328e-07
81 *419:A2 *419:A1 1.21774e-06
82 *454:A1 *416:A1 2.75346e-06
83 *454:A1 *112:104 1.32348e-05
84 *1:40 *112:65 4.12796e-06
85 *99:31 *112:89 1.14365e-05
86 *99:43 *436:A2 6.85774e-07
87 *99:43 *112:16 5.08295e-05
88 *101:68 *112:65 4.11295e-06
89 *103:8 *112:89 3.09682e-06
90 *105:12 *112:12 3.94272e-06
91 *105:12 *112:65 6.39482e-06
92 *111:54 *436:A2 9.36313e-05
93 *111:71 *112:8 7.81287e-06
94 *111:71 *112:89 1.12479e-05
*RES
1 *406:ZN *112:4 5 
2 *112:4 *112:8 8.75 
3 *112:8 *112:12 13.3929 
4 *112:12 *112:16 6.35715 
5 *112:16 *436:A2 39.8929 
6 *112:16 *422:B 5 
7 *112:12 *409:A1 5 
8 *112:8 *112:65 48.4643 
9 *112:65 *639:A1 14.3214 
10 *112:65 *410:A 15 
11 *112:4 *112:89 16 
12 *112:89 *419:A1 11.25 
13 *112:89 *112:104 7.85714 
14 *112:104 *454:A2 5 
15 *112:104 *416:A1 22.2143 
*END

*D_NET *114 0.00032193
*CONN
*I *409:A2 I *D NOR2_X1
*I *522:B1 I *D OAI21_X1
*I *408:ZN O *D NAND2_X1
*CAP
1 *409:A2 4.05329e-05
2 *522:B1 6.89971e-05
3 *408:ZN 0
4 *114:6 0.00010953
5 *409:A2 *408:A1 2.89018e-05
6 *409:A2 *408:A2 0
7 *409:A2 *483:A 0
8 *409:A2 *358:88 5.01473e-05
9 *522:B1 *408:A2 0
10 *522:B1 *483:A 0
11 *522:B1 *522:B2 1.045e-05
12 *522:B1 *138:23 1.33704e-05
13 *522:B1 *360:87 0
14 *436:A2 *409:A2 0
15 *111:54 *409:A2 0
*RES
1 *408:ZN *114:6 10 
2 *114:6 *522:B1 17.0357 
3 *114:6 *409:A2 15 
*END

*D_NET *115 0.00456199
*CONN
*I *439:B1 I *D AOI222_X1
*I *514:S I *D MUX2_X1
*I *513:S I *D MUX2_X1
*I *413:B1 I *D AOI222_X1
*I *492:B1 I *D AOI222_X1
*I *466:B1 I *D AOI22_X1
*I *409:ZN O *D NOR2_X1
*CAP
1 *439:B1 7.25193e-05
2 *514:S 0.00012126
3 *513:S 2.56862e-05
4 *413:B1 1.44666e-06
5 *492:B1 9.99521e-05
6 *466:B1 0.000328061
7 *409:ZN 2.84485e-05
8 *115:77 0.000332435
9 *115:73 0.000393394
10 *115:60 0.000311489
11 *115:43 0.000625161
12 *115:10 0.000707062
13 *413:B1 *124:21 5.05238e-06
14 *413:B1 *182:47 5.05238e-06
15 *439:B1 *439:C1 7.72792e-06
16 *439:B1 *370:29 1.53818e-05
17 *439:B1 *387:18 9.85879e-06
18 *466:B1 *449:S 7.72792e-06
19 *466:B1 *463:A2 8.46387e-06
20 *466:B1 *466:A1 9.758e-06
21 *466:B1 *470:A2 0
22 *466:B1 *480:A1 2.52965e-06
23 *466:B1 *552:A2 1.68643e-06
24 *466:B1 *552:A3 3.25451e-05
25 *466:B1 *558:A2 6.48216e-07
26 *466:B1 *595:B 2.52965e-06
27 *466:B1 *601:A2 7.87454e-06
28 *466:B1 *601:B2 0
29 *466:B1 *603:A 0
30 *466:B1 *234:6 7.66905e-06
31 *466:B1 *257:16 6.06253e-07
32 *466:B1 *359:207 5.60505e-05
33 *466:B1 *360:51 8.67699e-06
34 *466:B1 *360:66 3.30918e-06
35 *466:B1 *360:75 4.32144e-07
36 *466:B1 *371:28 0
37 *492:B1 *491:A2 0
38 *492:B1 *568:B 2.96965e-05
39 *492:B1 *117:31 5.49142e-06
40 *492:B1 *182:90 5.71728e-05
41 *492:B1 *367:25 1.72083e-05
42 *492:B1 *367:40 8.762e-07
43 *513:S *344:14 7.87454e-06
44 *513:S *386:16 3.90865e-05
45 *514:S *514:A 1.82068e-05
46 *514:S *299:54 1.8518e-05
47 *514:S *369:10 0
48 *115:43 *493:A2 0.000142923
49 *115:43 *141:31 1.93336e-06
50 *115:60 *492:A1 0
51 *115:60 *544:C1 2.60941e-05
52 *115:60 *549:C1 1.23682e-05
53 *115:60 *117:31 8.35199e-06
54 *115:60 *230:16 2.60908e-05
55 *115:73 *544:C1 7.73749e-05
56 *115:73 *230:16 2.51932e-05
57 *115:73 *370:29 3.37298e-05
58 *115:77 *441:B1 2.46704e-06
59 *115:77 *505:A1 6.90366e-06
60 *115:77 *125:62 5.93634e-06
61 *115:77 *299:54 1.14339e-05
62 *115:77 *369:12 0
63 *115:77 *369:18 0
64 *393:A *466:B1 1.02793e-05
65 *439:A2 *439:B1 3.09411e-06
66 *439:C2 *439:B1 9.18297e-06
67 *449:A *466:B1 1.28019e-05
68 *463:A1 *466:B1 0
69 *466:A2 *466:B1 2.76637e-06
70 *466:B2 *466:B1 2.75346e-06
71 *492:C1 *492:B1 0.000116202
72 *556:C2 *466:B1 2.05348e-05
73 *676:A *492:B1 3.22834e-06
74 *705:CK *466:B1 0
75 *706:D *514:S 1.62918e-05
76 *3:20 *492:B1 5.20596e-06
77 *6:20 *115:60 1.34729e-05
78 *15:14 *466:B1 3.83453e-06
79 *24:12 *514:S 0.00011928
80 *44:16 *439:B1 3.28001e-05
81 *44:16 *115:60 6.94803e-05
82 *44:16 *115:73 5.37591e-05
83 *57:14 *492:B1 0
84 *78:14 *514:S 9.4103e-06
85 *98:144 *514:S 0
86 *98:155 *514:S 0
87 *99:43 *115:10 6.54288e-06
88 *100:21 *466:B1 3.74029e-06
89 *101:8 *115:10 6.6142e-05
90 *101:23 *115:10 2.41376e-06
91 *101:45 *115:10 2.99872e-05
92 *101:45 *115:43 1.18107e-05
93 *105:25 *466:B1 8.83157e-06
94 *111:71 *115:10 9.0798e-05
95 *111:71 *115:43 1.58481e-05
96 *111:82 *466:B1 6.07323e-06
*RES
1 *409:ZN *115:10 15.75 
2 *115:10 *466:B1 48.1429 
3 *115:10 *115:43 28.4829 
4 *115:43 *492:B1 26.1171 
5 *115:43 *115:60 7.35 
6 *115:60 *413:B1 15.2857 
7 *115:60 *115:73 6.09 
8 *115:73 *115:77 21.5714 
9 *115:77 *513:S 13.75 
10 *115:77 *514:S 25.3214 
11 *115:73 *439:B1 19.9129 
*END

*D_NET *116 0.000412462
*CONN
*I *499:A3 I *D NAND3_X1
*I *412:A2 I *D AND2_X1
*I *411:ZN O *D NOR2_X1
*CAP
1 *499:A3 7.74706e-05
2 *412:A2 4.6161e-05
3 *411:ZN 0
4 *116:4 0.000123632
5 *412:A2 *412:A1 9.77674e-06
6 *412:A2 *128:10 1.3143e-06
7 *412:A2 *219:14 2.44242e-05
8 *412:A2 *358:148 7.18184e-06
9 *499:A3 *532:A 4.32144e-07
10 *499:A3 *533:A 3.83757e-05
11 *499:A3 *533:B1 0
12 *499:A3 *219:14 5.11318e-06
13 *399:A *412:A2 0
14 *499:A2 *499:A3 4.02744e-05
15 *532:B2 *412:A2 1.26998e-05
16 *533:B2 *499:A3 6.38328e-07
17 *572:B2 *499:A3 8.43215e-07
18 *1:74 *412:A2 0
19 *1:74 *499:A3 7.67361e-06
20 *101:68 *412:A2 1.45779e-05
21 *101:77 *412:A2 1.87369e-06
22 *101:92 *499:A3 0
*RES
1 *411:ZN *116:4 5 
2 *116:4 *412:A2 21.1429 
3 *116:4 *499:A3 14.8571 
*END

*D_NET *117 0.00323486
*CONN
*I *439:C1 I *D AOI222_X1
*I *505:B1 I *D AOI22_X1
*I *468:B1 I *D AOI22_X1
*I *413:C1 I *D AOI222_X1
*I *490:B2 I *D OAI21_X1
*I *412:ZN O *D AND2_X1
*CAP
1 *439:C1 3.22778e-05
2 *505:B1 6.30282e-06
3 *468:B1 0.000232864
4 *413:C1 1.26333e-05
5 *490:B2 1.67842e-05
6 *412:ZN 7.88397e-05
7 *117:46 0.000289738
8 *117:42 0.000216813
9 *117:31 0.000432471
10 *117:10 0.000381497
11 *413:C1 *504:A1 1.73125e-05
12 *439:C1 *335:12 3.58094e-06
13 *439:C1 *369:18 7.28472e-06
14 *439:C1 *387:18 9.62001e-06
15 *468:B1 *462:B2 0.000105582
16 *468:B1 *468:A2 0
17 *468:B1 *470:A3 2.39679e-06
18 *468:B1 *648:B 3.31662e-05
19 *468:B1 *667:B 3.44961e-05
20 *468:B1 *128:51 9.37236e-06
21 *468:B1 *128:55 0
22 *468:B1 *164:14 2.98523e-05
23 *468:B1 *299:76 3.45133e-06
24 *468:B1 *299:82 3.99225e-05
25 *468:B1 *371:61 1.34578e-05
26 *468:B1 *371:76 8.43215e-07
27 *468:B1 *372:65 4.24423e-05
28 *490:B2 *491:A1 1.21774e-06
29 *490:B2 *491:A2 1.89851e-06
30 *490:B2 *542:S 3.05523e-06
31 *505:B1 *505:A1 3.09143e-06
32 *505:B1 *506:A 2.52965e-06
33 *117:10 *477:A2 4.80378e-06
34 *117:10 *479:A2 0.000168802
35 *117:10 *491:A2 4.10632e-05
36 *117:10 *542:S 1.3198e-05
37 *117:10 *358:148 8.58678e-06
38 *117:10 *358:159 2.24125e-05
39 *117:10 *367:40 1.68391e-05
40 *117:31 *491:A2 5.01274e-05
41 *117:31 *504:A1 3.67704e-06
42 *117:31 *595:C2 6.23043e-05
43 *117:31 *122:16 8.75829e-05
44 *117:31 *190:37 0.000106559
45 *117:31 *220:41 4.51692e-06
46 *117:31 *367:40 1.80862e-05
47 *117:42 *504:A1 1.9192e-06
48 *117:42 *544:C1 1.80511e-05
49 *117:42 *369:18 1.68643e-06
50 *117:42 *369:20 2.19884e-05
51 *117:42 *387:18 3.10755e-05
52 *117:46 *505:A1 7.62825e-05
53 *117:46 *387:18 2.67493e-06
54 *413:B2 *413:C1 4.99394e-06
55 *413:B2 *117:42 4.70435e-05
56 *439:A2 *439:C1 2.44421e-06
57 *439:B1 *439:C1 7.72792e-06
58 *439:C2 *439:C1 1.21774e-06
59 *468:A1 *468:B1 1.23486e-05
60 *468:B2 *468:B1 1.0303e-05
61 *492:B1 *117:31 5.49142e-06
62 *505:B2 *468:B1 0.000178921
63 *509:C1 *468:B1 4.177e-06
64 *532:B2 *117:10 2.39679e-06
65 *546:A *117:42 0
66 *672:B *117:42 1.25215e-05
67 *676:B *490:B2 2.28853e-05
68 *44:16 *468:B1 0
69 *44:16 *117:31 8.50703e-05
70 *44:16 *117:46 0
71 *101:92 *117:10 1.93661e-06
72 *105:65 *117:10 0
73 *115:60 *117:31 8.35199e-06
*RES
1 *412:ZN *117:10 23.2143 
2 *117:10 *490:B2 12.25 
3 *117:10 *117:31 31.8971 
4 *117:31 *413:C1 6.75 
5 *117:31 *117:42 16.3571 
6 *117:42 *117:46 10.6786 
7 *117:46 *468:B1 43.6786 
8 *117:46 *505:B1 10.75 
9 *117:42 *439:C1 9.25 
*END

*D_NET *118 0.000362743
*CONN
*I *421:A I *D OAI221_X1
*I *413:ZN O *D AOI222_X1
*CAP
1 *421:A 0.000101566
2 *413:ZN 0.000101566
3 *421:A *421:B1 7.19036e-06
4 *421:A *421:C2 2.39679e-06
5 *421:A *425:A 9.57492e-07
6 *421:A *547:A 5.93256e-05
7 *421:A *550:A1 1.87637e-06
8 *421:A *550:A2 1.25189e-05
9 *421:A *682:A 5.59575e-07
10 *421:A *124:21 1.22749e-05
11 *421:A *128:26 0
12 *421:A *182:47 1.58978e-05
13 *421:A *182:65 8.43215e-07
14 *20:22 *421:A 1.82613e-05
15 *98:122 *421:A 1.67367e-05
16 *100:39 *421:A 9.1719e-06
17 *109:59 *421:A 1.60038e-06
*RES
1 *413:ZN *421:A 42.5 
*END

*D_NET *120 0.00120562
*CONN
*I *565:A I *D MUX2_X1
*I *416:A2 I *D NOR2_X2
*I *454:A3 I *D NOR3_X1
*I *641:A2 I *D NOR3_X2
*I *415:ZN O *D OR2_X1
*CAP
1 *565:A 7.26408e-05
2 *416:A2 0.000134554
3 *454:A3 0
4 *641:A2 4.20937e-05
5 *415:ZN 0.000244234
6 *120:32 0.000264053
7 *416:A2 *476:A2 4.26436e-05
8 *416:A2 *157:8 3.16227e-06
9 *416:A2 *361:154 2.99187e-06
10 *565:A *508:A2 1.6581e-06
11 *565:A *565:S 7.19036e-06
12 *565:A *361:184 9.72021e-06
13 *641:A2 *212:12 4.31977e-05
14 *641:A2 *298:8 3.52448e-06
15 *641:A2 *351:6 0
16 *120:32 *415:A1 1.68643e-06
17 *120:32 *570:A 3.2158e-05
18 *120:32 *570:B 7.93757e-06
19 *120:32 *124:8 1.18547e-06
20 *120:32 *360:184 0
21 *120:32 *361:126 2.25909e-05
22 *120:32 *361:214 7.04177e-06
23 *399:A *120:32 5.16574e-05
24 *403:A1 *416:A2 4.7875e-06
25 *403:A2 *416:A2 1.76028e-05
26 *410:A *641:A2 3.01743e-06
27 *416:A1 *416:A2 5.50692e-06
28 *419:A1 *120:32 1.32348e-05
29 *419:A2 *416:A2 1.43238e-06
30 *454:A1 *120:32 4.25381e-06
31 *538:C2 *120:32 7.59573e-05
32 *565:B *565:A 2.52076e-06
33 *639:A1 *641:A2 6.50033e-06
34 *105:65 *120:32 1.02269e-05
35 *105:77 *416:A2 1.56498e-05
36 *105:77 *565:A 3.83909e-06
37 *112:65 *120:32 2.63296e-05
38 *112:104 *416:A2 5.60111e-06
39 *112:104 *120:32 1.32348e-05
*RES
1 *415:ZN *641:A2 25.0357 
2 *415:ZN *120:32 31.7857 
3 *120:32 *454:A3 5 
4 *120:32 *416:A2 23.7143 
5 *416:A2 *565:A 17.5357 
*END

*D_NET *121 0.000727052
*CONN
*I *417:A2 I *D NAND2_X1
*I *416:ZN O *D NOR2_X2
*CAP
1 *417:A2 0.000105485
2 *416:ZN 0.000105485
3 *417:A2 *476:A2 7.02006e-06
4 *417:A2 *565:S 6.63274e-05
5 *417:A2 *224:25 7.39436e-05
6 *417:A2 *228:28 1.8031e-05
7 *417:A2 *241:22 7.2187e-06
8 *534:B2 *417:A2 1.69098e-05
9 *1:98 *417:A2 2.99128e-05
10 *105:77 *417:A2 2.11262e-05
11 *109:44 *417:A2 0.000275592
*RES
1 *416:ZN *417:A2 39.1786 
*END

*D_NET *122 0.00151993
*CONN
*I *441:C2 I *D OAI221_X1
*I *421:B1 I *D OAI221_X1
*I *417:ZN O *D NAND2_X1
*CAP
1 *441:C2 0.000142755
2 *421:B1 5.83742e-06
3 *417:ZN 0.000159975
4 *122:16 0.000308567
5 *421:B1 *421:B2 4.79358e-06
6 *441:C2 *437:A 1.92742e-05
7 *441:C2 *437:B1 1.89851e-06
8 *441:C2 *441:A 1.26998e-05
9 *441:C2 *441:B1 3.17304e-05
10 *441:C2 *128:26 2.87248e-06
11 *441:C2 *343:14 1.08036e-07
12 *441:C2 *344:14 0.0001583
13 *122:16 *544:C1 5.80396e-05
14 *122:16 *547:A 7.81939e-05
15 *122:16 *190:37 0.000149966
16 *122:16 *368:51 1.57386e-05
17 *421:A *421:B1 7.19036e-06
18 *482:A1 *122:16 1.68066e-06
19 *720:D *441:C2 7.19036e-06
20 *720:CK *441:C2 1.18589e-06
21 *1:98 *122:16 2.26991e-07
22 *24:20 *441:C2 0.000126736
23 *24:20 *122:16 0.000102361
24 *44:16 *122:16 7.84886e-06
25 *98:122 *441:C2 1.42313e-05
26 *98:122 *122:16 7.66675e-07
27 *98:137 *441:C2 8.59171e-06
28 *100:39 *122:16 3.58925e-06
29 *117:31 *122:16 8.75829e-05
*RES
1 *417:ZN *122:16 36.2843 
2 *122:16 *421:B1 10.75 
3 *122:16 *441:C2 32.2857 
*END

*D_NET *123 3.19109e-05
*CONN
*I *421:B2 I *D OAI221_X1
*I *418:ZN O *D INV_X1
*CAP
1 *421:B2 1.3137e-05
2 *418:ZN 1.3137e-05
3 *418:A *421:B2 8.43215e-07
4 *421:B1 *421:B2 4.79358e-06
*RES
1 *418:ZN *421:B2 11.4286 
*END

*D_NET *124 0.00270254
*CONN
*I *512:S I *D MUX2_X1
*I *511:S I *D MUX2_X1
*I *484:B2 I *D AOI221_X1
*I *420:A2 I *D NAND2_X1
*I *419:ZN O *D NOR2_X1
*CAP
1 *512:S 0
2 *511:S 8.54881e-05
3 *484:B2 0.000171694
4 *420:A2 0
5 *419:ZN 0.000116557
6 *124:23 0.000303859
7 *124:21 0.000257933
8 *124:8 0.000327814
9 *484:B2 *428:B2 1.68489e-05
10 *484:B2 *484:A 3.93732e-06
11 *484:B2 *484:B1 2.39679e-06
12 *484:B2 *542:A 3.82234e-06
13 *484:B2 *542:B 3.02372e-05
14 *484:B2 *542:S 2.95559e-05
15 *484:B2 *543:A4 0
16 *484:B2 *549:B1 8.13956e-06
17 *484:B2 *549:C1 0
18 *484:B2 *568:B 4.79704e-05
19 *484:B2 *182:65 7.02617e-06
20 *484:B2 *367:27 9.57492e-07
21 *484:B2 *367:40 6.38328e-07
22 *484:B2 *367:78 4.68157e-06
23 *511:S *511:A 2.39679e-06
24 *511:S *542:B 2.1335e-05
25 *511:S *128:26 2.55331e-06
26 *511:S *133:18 7.06488e-06
27 *511:S *343:20 7.97793e-06
28 *124:8 *451:A1 3.08967e-05
29 *124:8 *476:A2 7.03529e-06
30 *124:8 *534:B1 4.9678e-06
31 *124:8 *153:6 4.4274e-06
32 *124:8 *153:21 1.89851e-06
33 *124:8 *220:18 1.74934e-05
34 *124:8 *358:203 0
35 *124:21 *413:A1 8.82069e-06
36 *124:21 *508:B2 5.54369e-05
37 *124:21 *550:A2 5.59234e-05
38 *124:21 *594:C2 5.54328e-05
39 *124:21 *595:C2 0.00048994
40 *124:21 *682:A 0
41 *124:21 *182:23 7.53359e-05
42 *124:21 *182:34 1.55894e-05
43 *124:21 *182:47 4.10632e-05
44 *124:21 *245:16 1.79861e-05
45 *124:21 *358:203 0
46 *124:23 *428:B2 1.32348e-05
47 *124:23 *512:A 7.72537e-06
48 *124:23 *128:26 0
49 *392:A *124:23 7.75112e-07
50 *403:A1 *124:8 3.28559e-05
51 *403:A2 *124:8 2.82896e-05
52 *413:B1 *124:21 5.05238e-06
53 *416:A1 *124:8 2.24822e-06
54 *419:A2 *124:8 3.09143e-06
55 *420:A1 *124:8 4.77786e-06
56 *420:A1 *124:21 8.43215e-07
57 *421:A *124:21 1.22749e-05
58 *428:A *511:S 2.99163e-05
59 *428:B1 *124:23 1.86809e-06
60 *482:A1 *484:B2 1.51e-06
61 *482:A2 *484:B2 0
62 *492:A2 *484:B2 0.000104619
63 *492:A2 *511:S 7.83546e-06
64 *682:B *511:S 2.73661e-05
65 *20:22 *124:21 2.47905e-06
66 *98:12 *511:S 5.29747e-06
67 *98:122 *124:23 4.98316e-05
68 *105:77 *124:8 0
69 *109:8 *124:8 1.63326e-05
70 *120:32 *124:8 1.18547e-06
*RES
1 *419:ZN *124:8 19.6786 
2 *124:8 *420:A2 5 
3 *124:8 *124:21 44.25 
4 *124:21 *124:23 6.25 
5 *124:23 *484:B2 36.8572 
6 *124:23 *511:S 26.2857 
7 *124:21 *512:S 5 
*END

*D_NET *125 0.00309912
*CONN
*I *441:B1 I *D OAI221_X1
*I *421:C2 I *D OAI221_X1
*I *506:B1 I *D OAI21_X1
*I *453:B1 I *D OAI21_X1
*I *463:A2 I *D OR2_X1
*I *602:B1 I *D OAI21_X1
*I *420:ZN O *D NAND2_X1
*CAP
1 *441:B1 0.000122256
2 *421:C2 5.16182e-05
3 *506:B1 4.90934e-05
4 *453:B1 9.20216e-06
5 *463:A2 8.55862e-05
6 *602:B1 6.75528e-05
7 *420:ZN 9.84242e-05
8 *125:62 0.000306463
9 *125:47 0.000297403
10 *125:14 0.000191723
11 *125:12 8.00556e-05
12 *125:10 0.000246414
13 *421:C2 *425:A 5.69557e-06
14 *421:C2 *442:B1 1.0303e-05
15 *421:C2 *681:A 1.26998e-05
16 *421:C2 *128:84 7.19036e-06
17 *441:B1 *437:A 3.5979e-06
18 *441:B1 *437:B1 1.95868e-05
19 *441:B1 *437:B2 6.08957e-06
20 *441:B1 *441:A 1.26998e-05
21 *441:B1 *128:30 2.64713e-06
22 *453:B1 *452:A1 1.26998e-05
23 *453:B1 *453:A 2.39679e-06
24 *453:B1 *157:37 1.28122e-06
25 *463:A2 *466:A1 8.90513e-06
26 *463:A2 *470:A1 0
27 *463:A2 *470:A2 4.47741e-06
28 *506:B1 *506:A 3.03512e-06
29 *506:B1 *128:51 1.53342e-05
30 *506:B1 *241:22 1.65435e-05
31 *602:B1 *602:A 7.72792e-06
32 *602:B1 *603:A 4.75359e-05
33 *602:B1 *345:12 0.00015646
34 *125:10 *453:A 0
35 *125:10 *507:A1 0
36 *125:10 *508:B1 2.14504e-06
37 *125:10 *574:A1 0
38 *125:10 *574:A2 0
39 *125:10 *648:A 2.23415e-06
40 *125:10 *154:34 6.44217e-06
41 *125:10 *220:18 0
42 *125:12 *601:A2 1.5631e-05
43 *125:12 *190:45 6.90604e-05
44 *125:12 *345:12 6.68679e-05
45 *125:14 *601:A2 3.24887e-05
46 *125:14 *345:12 0.000141949
47 *125:47 *509:A 1.43066e-05
48 *125:47 *128:51 0
49 *125:47 *190:37 1.66322e-05
50 *125:47 *190:45 0.000325316
51 *125:62 *504:B2 3.47467e-05
52 *125:62 *505:A1 0
53 *125:62 *673:B 5.29342e-05
54 *125:62 *128:34 1.33045e-05
55 *125:62 *128:51 0
56 *125:62 *190:37 1.2631e-06
57 *125:62 *335:8 1.60602e-05
58 *125:62 *368:74 3.65974e-06
59 *420:A1 *125:10 3.19164e-07
60 *421:A *421:C2 2.39679e-06
61 *421:C1 *421:C2 2.52965e-06
62 *441:C2 *441:B1 3.17304e-05
63 *466:A2 *463:A2 5.14952e-05
64 *466:B1 *463:A2 8.46387e-06
65 *466:B2 *463:A2 0
66 *505:A2 *506:B1 0
67 *559:A *463:A2 8.09776e-06
68 *602:B2 *602:B1 6.0406e-05
69 *674:A *125:47 2.79426e-06
70 *705:D *125:10 1.19839e-05
71 *705:D *125:47 9.05224e-06
72 *705:RN *125:12 1.68357e-05
73 *705:RN *125:47 2.34788e-05
74 *705:CK *125:10 6.07323e-06
75 *14:10 *602:B1 5.86034e-05
76 *14:10 *125:14 1.58275e-05
77 *20:22 *421:C2 2.88615e-06
78 *44:20 *506:B1 0
79 *115:77 *441:B1 2.46704e-06
80 *115:77 *125:62 5.93634e-06
*RES
1 *420:ZN *125:10 20.1786 
2 *125:10 *125:12 6.35715 
3 *125:12 *125:14 7.71429 
4 *125:14 *602:B1 24.1429 
5 *125:14 *463:A2 20.1786 
6 *125:12 *453:B1 11.25 
7 *125:10 *125:47 18.5714 
8 *125:47 *506:B1 15.9286 
9 *125:47 *125:62 14.5 
10 *125:62 *421:C2 15.75 
11 *125:62 *441:B1 23.5714 
*END

*D_NET *126 0.000184322
*CONN
*I *425:A I *D AOI21_X1
*I *421:ZN O *D OAI221_X1
*CAP
1 *425:A 5.71564e-05
2 *421:ZN 5.71564e-05
3 *425:A *437:A 1.28122e-06
4 *425:A *437:B1 2.60987e-06
5 *425:A *442:B1 1.21774e-06
6 *425:A *128:26 4.79629e-05
7 *425:A *128:84 3.09411e-06
8 *421:A *425:A 9.57492e-07
9 *421:C1 *425:A 7.19036e-06
10 *421:C2 *425:A 5.69557e-06
*RES
1 *421:ZN *425:A 17.6071 
*END

*D_NET *127 8.83853e-05
*CONN
*I *423:A3 I *D NOR3_X2
*I *422:Z O *D MUX2_X1
*CAP
1 *423:A3 3.67919e-05
2 *422:Z 3.67919e-05
3 *423:A3 *485:A2 0
4 *423:A3 *128:8 2.39679e-06
5 *423:A3 *128:10 3.49085e-06
6 *423:A3 *359:127 7.72792e-06
7 *99:43 *423:A3 1.18589e-06
*RES
1 *422:Z *423:A3 23.7143 
*END

*D_NET *128 0.00552297
*CONN
*I *501:B1 I *D AOI21_X1
*I *442:B1 I *D AOI21_X1
*I *425:B1 I *D AOI21_X1
*I *455:C2 I *D AOI221_X1
*I *603:B1 I *D AOI21_X1
*I *469:A2 I *D NAND2_X1
*I *504:A2 I *D AOI22_X1
*I *423:ZN O *D NOR3_X2
*CAP
1 *501:B1 4.87461e-05
2 *442:B1 0.000172263
3 *425:B1 0
4 *455:C2 0
5 *603:B1 0.000124724
6 *469:A2 0
7 *504:A2 0
8 *423:ZN 1.93021e-05
9 *128:84 0.000177632
10 *128:55 0.000193999
11 *128:51 0.000292657
12 *128:34 0.000332912
13 *128:30 0.000135346
14 *128:26 0.000325822
15 *128:12 0.000360668
16 *128:10 0.000376983
17 *128:8 0.00038974
18 *442:B1 *437:B1 4.51289e-05
19 *442:B1 *442:A 1.58668e-05
20 *442:B1 *447:A 7.74632e-06
21 *442:B1 *681:A 6.4669e-05
22 *442:B1 *688:A 2.39679e-06
23 *442:B1 *150:20 1.26998e-05
24 *501:B1 *501:A 2.75346e-06
25 *501:B1 *501:B2 1.21774e-06
26 *501:B1 *502:A3 1.42067e-05
27 *501:B1 *298:79 5.43035e-06
28 *501:B1 *366:16 0
29 *603:B1 *470:A3 4.42084e-06
30 *603:B1 *603:A 5.44494e-05
31 *603:B1 *652:A 1.21774e-06
32 *603:B1 *346:12 7.27241e-06
33 *603:B1 *372:49 1.12139e-05
34 *603:B1 *372:55 0
35 *603:B1 *372:94 3.09411e-06
36 *128:8 *359:127 6.94234e-06
37 *128:10 *489:A 0
38 *128:10 *491:A2 0
39 *128:10 *491:A3 1.27148e-05
40 *128:10 *539:C1 3.43575e-05
41 *128:10 *182:90 0.000221994
42 *128:10 *190:20 2.08098e-06
43 *128:10 *219:14 1.55838e-05
44 *128:10 *223:8 0.000118418
45 *128:10 *358:159 0
46 *128:10 *361:109 1.72089e-05
47 *128:10 *361:120 2.83471e-05
48 *128:10 *361:208 1.21105e-05
49 *128:26 *428:B2 0
50 *128:26 *492:A1 5.58442e-05
51 *128:26 *502:A3 2.38593e-05
52 *128:26 *511:A 0
53 *128:26 *512:A 0
54 *128:26 *547:A 2.56243e-06
55 *128:26 *657:S 0
56 *128:26 *682:A 9.62051e-07
57 *128:26 *343:14 1.18907e-05
58 *128:26 *343:20 0
59 *128:26 *344:14 1.28122e-06
60 *128:30 *437:A 4.10446e-05
61 *128:30 *437:B2 6.95235e-06
62 *128:34 *504:B2 0.000150942
63 *128:34 *547:B 2.72587e-05
64 *128:34 *368:51 4.79067e-06
65 *128:34 *368:74 1.33157e-05
66 *128:51 *455:A 8.43215e-07
67 *128:51 *455:B1 4.32144e-07
68 *128:51 *455:C1 2.75346e-06
69 *128:51 *462:A 3.99708e-05
70 *128:51 *504:A1 2.75346e-06
71 *128:51 *504:B1 6.48216e-07
72 *128:51 *509:A 3.08703e-05
73 *128:51 *510:A1 0
74 *128:51 *648:A 0
75 *128:51 *648:B 0.000201383
76 *128:51 *157:37 2.55029e-06
77 *128:51 *164:14 0
78 *128:51 *299:76 6.11676e-06
79 *128:51 *299:82 6.76e-05
80 *128:55 *455:A 6.48413e-05
81 *128:55 *462:B2 0
82 *128:55 *468:A2 7.88124e-05
83 *128:55 *470:A3 2.06754e-05
84 *128:55 *667:B 8.56923e-06
85 *128:55 *164:14 2.84765e-06
86 *128:55 *371:76 9.4326e-06
87 *128:55 *371:87 2.72417e-06
88 *399:A *128:10 6.76399e-05
89 *412:A2 *128:10 1.3143e-06
90 *421:A *128:26 0
91 *421:C2 *442:B1 1.0303e-05
92 *421:C2 *128:84 7.19036e-06
93 *423:A3 *128:8 2.39679e-06
94 *423:A3 *128:10 3.49085e-06
95 *425:A *442:B1 1.21774e-06
96 *425:A *128:26 4.79629e-05
97 *425:A *128:84 3.09411e-06
98 *427:A *128:26 1.73951e-05
99 *428:B1 *128:26 2.58428e-06
100 *441:B1 *128:30 2.64713e-06
101 *441:C2 *128:26 2.87248e-06
102 *466:B2 *603:B1 3.00797e-05
103 *468:B1 *128:51 9.37236e-06
104 *468:B1 *128:55 0
105 *468:B2 *603:B1 1.39341e-05
106 *468:B2 *128:55 1.38153e-05
107 *484:C2 *128:10 0.000118827
108 *492:A2 *128:26 6.12193e-05
109 *505:A2 *128:51 5.36507e-05
110 *505:B2 *128:51 2.25546e-05
111 *506:B1 *128:51 1.53342e-05
112 *511:S *128:26 2.55331e-06
113 *540:A *128:10 8.1183e-06
114 *551:A *442:B1 2.03295e-05
115 *569:A *128:26 3.11854e-05
116 *665:B *128:26 1.25189e-05
117 *665:CI *128:26 1.57486e-05
118 *674:A *128:51 7.95747e-05
119 *676:A *128:10 4.62991e-06
120 *676:A *128:26 1.18168e-05
121 *682:B *128:26 4.64348e-06
122 *705:D *128:51 4.77161e-05
123 *705:RN *128:51 1.71454e-06
124 *720:D *128:26 3.69562e-06
125 *720:CK *128:26 2.83315e-05
126 *9:8 *603:B1 8.19658e-05
127 *20:22 *128:34 3.0001e-06
128 *57:8 *501:B1 0
129 *57:8 *128:26 1.21563e-05
130 *57:14 *128:10 1.63465e-06
131 *99:43 *128:8 6.5388e-06
132 *101:68 *128:10 6.40298e-05
133 *105:12 *128:10 0
134 *124:23 *128:26 0
135 *125:47 *128:51 0
136 *125:62 *128:34 1.33045e-05
137 *125:62 *128:51 0
*RES
1 *423:ZN *128:8 12.25 
2 *128:8 *128:10 52.5 
3 *128:10 *128:12 0.75 
4 *128:12 *128:26 48.6072 
5 *128:26 *128:30 3.03572 
6 *128:30 *128:34 18.8214 
7 *128:34 *504:A2 5 
8 *128:34 *128:51 43.2143 
9 *128:51 *128:55 15.4286 
10 *128:55 *469:A2 10 
11 *128:55 *603:B1 26.4286 
12 *128:51 *455:C2 5 
13 *128:30 *128:84 5.75 
14 *128:84 *425:B1 5 
15 *128:84 *442:B1 28.5357 
16 *128:12 *501:B1 15.5357 
*END

*D_NET *130 0.000186896
*CONN
*I *437:A I *D OAI21_X1
*I *425:ZN O *D AOI21_X1
*CAP
1 *437:A 4.84443e-05
2 *425:ZN 4.84443e-05
3 *437:A *437:B1 2.26358e-06
4 *437:A *343:14 2.03025e-05
5 *421:C1 *437:A 8.74312e-07
6 *425:A *437:A 1.28122e-06
7 *441:B1 *437:A 3.5979e-06
8 *441:C2 *437:A 1.92742e-05
9 *720:D *437:A 0
10 *24:20 *437:A 1.36905e-06
11 *128:30 *437:A 4.10446e-05
*RES
1 *425:ZN *437:A 26.3214 
*END

*D_NET *131 0.00022291
*CONN
*I *444:A I *D OAI21_X1
*I *430:A I *D OAI21_X1
*I *426:ZN O *D INV_X1
*CAP
1 *444:A 6.30893e-05
2 *430:A 1.51176e-05
3 *426:ZN 2.29459e-05
4 *131:6 0.000101153
5 *430:A *430:B1 2.39679e-06
6 *430:A *430:B2 1.65202e-06
7 *430:A *445:B2 3.09411e-06
8 *444:A *445:B2 1.26184e-05
9 *131:6 *431:B 0
10 *444:B1 *444:A 0
11 *48:16 *430:A 8.43215e-07
*RES
1 *426:ZN *131:6 7.28572 
2 *131:6 *430:A 6.75 
3 *131:6 *444:A 12.2143 
*END

*D_NET *132 0.000215466
*CONN
*I *428:B2 I *D AOI21_X1
*I *427:ZN O *D INV_X1
*CAP
1 *428:B2 4.73704e-05
2 *427:ZN 4.73704e-05
3 *428:B2 *542:A 1.02698e-05
4 *428:B2 *542:B 5.56213e-05
5 *428:B2 *133:18 7.72792e-06
6 *428:B1 *428:B2 1.21774e-06
7 *482:A1 *428:B2 4.55949e-09
8 *484:B2 *428:B2 1.68489e-05
9 *492:A2 *428:B2 1.58001e-05
10 *124:23 *428:B2 1.32348e-05
11 *128:26 *428:B2 0
*RES
1 *427:ZN *428:B2 26.7143 
*END

*D_NET *133 0.00222063
*CONN
*I *430:B1 I *D OAI21_X1
*I *459:B2 I *D OAI21_X1
*I *607:C1 I *D OAI211_X2
*I *428:ZN O *D AOI21_X1
*CAP
1 *430:B1 6.85233e-06
2 *459:B2 9.98528e-06
3 *607:C1 3.05494e-05
4 *428:ZN 0.000449391
5 *133:24 0.00018552
6 *133:18 0.000601228
7 *430:B1 *430:B2 8.43215e-07
8 *459:B2 *161:12 8.43215e-07
9 *607:C1 *607:A 5.39659e-06
10 *607:C1 *607:B 6.38328e-07
11 *607:C1 *607:C2 3.48838e-06
12 *133:18 *437:B2 0.000289372
13 *133:18 *492:A1 0.00021489
14 *133:18 *542:B 0
15 *133:18 *368:74 7.15179e-05
16 *133:18 *380:42 6.952e-06
17 *133:24 *457:A 2.64615e-05
18 *133:24 *607:A 3.01743e-06
19 *133:24 *607:C2 6.50827e-06
20 *133:24 *684:A 8.79186e-06
21 *133:24 *149:14 0.000104497
22 *133:24 *150:20 4.32298e-05
23 *133:24 *160:10 1.11357e-05
24 *428:B2 *133:18 7.72792e-06
25 *430:A *430:B1 2.39679e-06
26 *456:A1 *133:18 6.48738e-06
27 *456:A1 *133:24 5.15129e-05
28 *457:B1 *133:24 3.01743e-06
29 *457:B2 *459:B2 0
30 *458:A3 *133:24 4.76429e-07
31 *511:S *133:18 7.06488e-06
32 *6:20 *133:18 3.88171e-05
33 *44:35 *607:C1 2.54095e-06
34 *44:35 *133:24 5.12024e-06
35 *48:16 *430:B1 4.32144e-07
36 *48:16 *133:18 3.57627e-07
37 *48:16 *133:24 1.07657e-05
38 *52:10 *607:C1 0
39 *62:12 *430:B1 1.18232e-06
40 *98:12 *133:18 1.62382e-06
*RES
1 *428:ZN *133:18 40.4357 
2 *133:18 *133:24 21.4286 
3 *133:24 *607:C1 14.0357 
4 *133:24 *459:B2 11.75 
5 *133:18 *430:B1 10.75 
*END

*D_NET *134 0.000267607
*CONN
*I *444:B2 I *D OAI21_X1
*I *430:B2 I *D OAI21_X1
*I *429:ZN O *D INV_X1
*CAP
1 *444:B2 2.88946e-05
2 *430:B2 4.30147e-05
3 *429:ZN 8.71307e-06
4 *134:6 8.06223e-05
5 *430:B2 *445:B2 2.19423e-05
6 *430:A *430:B2 1.65202e-06
7 *430:B1 *430:B2 8.43215e-07
8 *444:B1 *430:B2 4.32144e-07
9 *444:B1 *444:B2 3.90891e-05
10 *445:B1 *430:B2 3.28163e-05
11 *457:B1 *430:B2 7.19036e-06
12 *55:8 *444:B2 0
13 *62:12 *430:B2 2.39679e-06
*RES
1 *429:ZN *134:6 5.92857 
2 *134:6 *430:B2 20.2143 
3 *134:6 *444:B2 8.75 
*END

*D_NET *135 0.000174895
*CONN
*I *431:B I *D XNOR2_X1
*I *430:ZN O *D OAI21_X1
*CAP
1 *431:B 7.40995e-05
2 *430:ZN 7.40995e-05
3 *431:B *684:A 0
4 *431:B *688:A 2.83077e-06
5 *48:16 *431:B 8.708e-06
6 *62:12 *431:B 1.51569e-05
7 *131:6 *431:B 0
*RES
1 *430:ZN *431:B 17.2857 
*END

*D_NET *136 0.000626335
*CONN
*I *437:B1 I *D OAI21_X1
*I *431:ZN O *D XNOR2_X1
*CAP
1 *437:B1 0.000230611
2 *431:ZN 0.000230611
3 *437:B1 *441:C1 0
4 *437:B1 *442:A 8.70573e-05
5 *437:B1 *684:A 0
6 *437:B1 *688:A 4.80114e-06
7 *437:B1 *344:14 0
8 *437:B1 *370:70 0
9 *425:A *437:B1 2.60987e-06
10 *437:A *437:B1 2.26358e-06
11 *441:B1 *437:B1 1.95868e-05
12 *441:B2 *437:B1 1.76665e-06
13 *441:C2 *437:B1 1.89851e-06
14 *442:B1 *437:B1 4.51289e-05
*RES
1 *431:ZN *437:B1 37.7143 
*END

*D_NET *137 0.000106276
*CONN
*I *436:B1 I *D AOI222_X4
*I *432:ZN O *D NOR2_X1
*CAP
1 *436:B1 4.74314e-05
2 *432:ZN 4.74314e-05
3 *436:B1 *436:B2 2.75346e-06
4 *436:B1 *359:36 6.85774e-07
5 *436:B1 *361:36 0
6 *436:B1 *361:42 3.09411e-06
7 *436:B1 *361:50 0
8 *436:A2 *436:B1 4.87933e-06
9 *1:22 *436:B1 0
*RES
1 *432:ZN *436:B1 25.0714 
*END

*D_NET *138 0.00123685
*CONN
*I *563:B2 I *D OAI21_X1
*I *617:B1 I *D OAI21_X1
*I *590:A1 I *D NOR2_X1
*I *522:B2 I *D OAI21_X1
*I *434:B1 I *D OAI21_X1
*I *433:ZN O *D INV_X1
*CAP
1 *563:B2 7.6368e-05
2 *617:B1 2.15144e-05
3 *590:A1 0
4 *522:B2 3.19073e-05
5 *434:B1 0
6 *433:ZN 2.44003e-05
7 *138:51 0.000144279
8 *138:40 0.000121057
9 *138:23 0.000173794
10 *138:12 9.16262e-05
11 *522:B2 *483:A 0
12 *522:B2 *274:12 5.20238e-07
13 *522:B2 *383:31 1.37673e-05
14 *563:B2 *560:B2 0
15 *563:B2 *563:A 1.91498e-06
16 *563:B2 *617:A 4.9678e-06
17 *563:B2 *627:A2 4.87096e-06
18 *563:B2 *627:A3 4.29961e-05
19 *563:B2 *287:18 6.11168e-05
20 *563:B2 *338:16 0
21 *617:B1 *616:A1 1.60056e-05
22 *617:B1 *617:A 1.25189e-05
23 *617:B1 *618:C2 4.24402e-05
24 *138:12 *432:A1 1.48912e-05
25 *138:12 *434:B2 4.9678e-06
26 *138:12 *361:256 3.19164e-07
27 *138:12 *361:264 2.16072e-07
28 *138:23 *433:A 1.94588e-05
29 *138:23 *274:12 1.39294e-06
30 *138:23 *360:87 0
31 *138:23 *361:264 1.08606e-05
32 *138:40 *433:A 3.78407e-05
33 *138:40 *590:A2 2.23558e-05
34 *138:40 *591:C2 0
35 *138:40 *612:A1 1.26998e-05
36 *138:40 *614:A2 3.62279e-05
37 *138:40 *627:A2 4.86437e-06
38 *138:40 *272:16 4.32144e-07
39 *138:40 *361:264 0
40 *138:40 *383:54 2.96441e-06
41 *138:51 *591:A 2.39679e-06
42 *138:51 *616:A1 2.21845e-05
43 *138:51 *618:C2 2.3953e-05
44 *138:51 *627:A2 1.65202e-06
45 *138:51 *383:54 2.39679e-06
46 *138:51 *383:65 2.36735e-05
47 *436:A2 *138:12 3.09411e-06
48 *522:B1 *522:B2 1.045e-05
49 *522:B1 *138:23 1.33704e-05
50 *561:A1 *138:51 2.47678e-05
51 *617:B2 *617:B1 1.21774e-06
52 *627:A1 *563:B2 6.85774e-07
53 *102:132 *563:B2 0
54 *102:145 *563:B2 0
55 *111:8 *138:12 1.88334e-06
56 *111:14 *138:23 6.48216e-07
57 *111:29 *522:B2 1.17157e-05
58 *111:29 *138:40 2.35258e-05
59 *111:43 *138:12 1.36811e-05
*RES
1 *433:ZN *138:12 18.5357 
2 *138:12 *434:B1 5 
3 *138:12 *138:23 13.0357 
4 *138:23 *522:B2 14.2143 
5 *138:23 *138:40 15.1786 
6 *138:40 *590:A1 5 
7 *138:40 *138:51 11.9286 
8 *138:51 *617:B1 13.5357 
9 *138:51 *563:B2 20.1786 
*END

*D_NET *139 0.00012609
*CONN
*I *436:B2 I *D AOI222_X4
*I *434:ZN O *D OAI21_X1
*CAP
1 *436:B2 3.98438e-05
2 *434:ZN 3.98438e-05
3 *436:B2 *434:B2 2.10761e-06
4 *436:B2 *359:36 0
5 *436:B2 *361:38 4.76326e-06
6 *436:A2 *436:B2 3.67779e-05
7 *436:B1 *436:B2 2.75346e-06
*RES
1 *434:ZN *436:B2 14.9286 
*END

*D_NET *140 0.000397962
*CONN
*I *485:A2 I *D NAND2_X1
*I *515:B1 I *D OAI21_X1
*I *436:C1 I *D AOI222_X4
*I *435:ZN O *D AND2_X1
*CAP
1 *485:A2 3.52035e-05
2 *515:B1 3.15708e-05
3 *436:C1 2.08299e-05
4 *435:ZN 2.93342e-05
5 *140:10 9.26813e-05
6 *140:8 0.000104818
7 *436:C1 *361:36 8.72084e-07
8 *436:C1 *361:50 0
9 *485:A2 *361:85 0
10 *515:B1 *515:A 7.19036e-06
11 *515:B1 *358:49 1.69265e-05
12 *515:B1 *359:21 8.43215e-07
13 *515:B1 *361:38 2.39679e-06
14 *515:B1 *361:42 4.4061e-05
15 *140:8 *358:49 6.44217e-06
16 *140:10 *432:A1 0
17 *140:10 *358:66 0
18 *140:10 *361:85 0
19 *423:A3 *485:A2 0
20 *436:A2 *485:A2 0
21 *436:A2 *140:10 0
22 *99:43 *140:8 4.79202e-06
*RES
1 *435:ZN *140:8 13.25 
2 *140:8 *140:10 3.64286 
3 *140:10 *436:C1 11.6071 
4 *140:10 *515:B1 14.75 
5 *140:8 *485:A2 13.6429 
*END

*D_NET *141 0.0060975
*CONN
*I *437:B2 I *D OAI21_X1
*I *447:B2 I *D OAI21_X1
*I *619:A1 I *D NOR3_X1
*I *622:A1 I *D NOR2_X1
*I *475:B2 I *D OAI21_X1
*I *462:B2 I *D OAI21_X1
*I *493:A2 I *D OR2_X1
*I *436:ZN O *D AOI222_X4
*CAP
1 *437:B2 0.000181491
2 *447:B2 0
3 *619:A1 0
4 *622:A1 1.84659e-05
5 *475:B2 0
6 *462:B2 7.28561e-05
7 *493:A2 0.000549306
8 *436:ZN 0.000100423
9 *141:79 0.00048779
10 *141:61 0.000146538
11 *141:50 0.000128072
12 *141:48 0.000431796
13 *141:31 0.000630579
14 *141:12 0.00108195
15 *437:B2 *150:20 9.8258e-06
16 *437:B2 *299:54 0
17 *437:B2 *344:8 2.85655e-06
18 *437:B2 *370:14 1.02941e-06
19 *462:B2 *299:82 0.000235056
20 *493:A2 *190:20 2.35937e-05
21 *622:A1 *619:A2 6.31548e-06
22 *622:A1 *636:C1 1.54516e-05
23 *622:A1 *241:58 1.45806e-05
24 *622:A1 *241:60 4.28558e-05
25 *141:12 *358:49 1.92897e-06
26 *141:12 *358:66 8.2465e-06
27 *141:12 *358:88 3.75827e-05
28 *141:31 *257:16 3.47077e-05
29 *141:31 *278:16 0
30 *141:31 *372:26 0
31 *141:48 *624:A2 2.6375e-07
32 *141:48 *257:16 2.63121e-05
33 *141:48 *278:16 0
34 *141:48 *372:55 1.01048e-05
35 *141:61 *470:A2 7.72792e-06
36 *141:61 *475:B1 3.5402e-05
37 *141:61 *624:A2 0
38 *141:61 *624:B1 0
39 *141:61 *630:B 1.0106e-05
40 *141:61 *630:C1 8.43215e-07
41 *141:61 *636:C1 5.90763e-06
42 *141:61 *241:58 8.88396e-05
43 *141:61 *285:8 0
44 *141:61 *338:44 0
45 *141:61 *338:55 0
46 *141:79 *455:C1 1.315e-05
47 *141:79 *470:A2 5.30473e-05
48 *141:79 *475:A 1.5592e-05
49 *141:79 *585:A 4.88119e-05
50 *141:79 *585:B1 4.24423e-05
51 *141:79 *624:A2 4.43461e-05
52 *141:79 *663:B2 2.11573e-05
53 *141:79 *664:B 8.10117e-05
54 *141:79 *675:B 2.37916e-06
55 *141:79 *681:A 5.99538e-05
56 *141:79 *150:20 1.93817e-05
57 *141:79 *241:33 0.000101586
58 *141:79 *241:39 9.21631e-05
59 *141:79 *370:14 1.3299e-07
60 *141:79 *371:76 0
61 *141:79 *372:55 0.000200824
62 *436:A2 *141:12 3.09411e-06
63 *441:B1 *437:B2 6.08957e-06
64 *455:B2 *141:79 1.09178e-05
65 *466:A2 *462:B2 2.9183e-05
66 *468:B1 *462:B2 0.000105582
67 *468:B2 *462:B2 0
68 *503:A *141:79 8.11762e-05
69 *579:A1 *141:12 3.02372e-05
70 *99:43 *141:12 1.91954e-06
71 *101:8 *141:12 7.01433e-05
72 *111:71 *141:12 6.51995e-05
73 *112:16 *141:12 7.98366e-06
74 *115:43 *493:A2 0.000142923
75 *115:43 *141:31 1.93336e-06
76 *128:30 *437:B2 6.95235e-06
77 *128:55 *462:B2 0
78 *133:18 *437:B2 0.000289372
*RES
1 *436:ZN *141:12 30.1071 
2 *141:12 *493:A2 46.41 
3 *141:12 *141:31 14.49 
4 *141:31 *462:B2 27.7857 
5 *141:31 *141:48 9.98143 
6 *141:48 *141:50 5 
7 *141:50 *475:B2 5 
8 *141:50 *141:61 20.25 
9 *141:61 *622:A1 12.9643 
10 *141:61 *619:A1 10 
11 *141:48 *141:79 48.4286 
12 *141:79 *447:B2 10 
13 *141:79 *437:B2 30.6129 
*END

*D_NET *143 0.000364878
*CONN
*I *441:A I *D OAI221_X1
*I *439:ZN O *D AOI222_X1
*CAP
1 *441:A 5.95473e-05
2 *439:ZN 5.95473e-05
3 *441:A *387:18 0.000164485
4 *439:B2 *441:A 2.7659e-05
5 *441:B1 *441:A 1.26998e-05
6 *441:C2 *441:A 1.26998e-05
7 *19:14 *441:A 2.82396e-05
*RES
1 *439:ZN *441:A 30.3214 
*END

*D_NET *144 0.000332167
*CONN
*I *441:C1 I *D OAI221_X1
*I *440:ZN O *D INV_X1
*CAP
1 *441:C1 0.000109979
2 *440:ZN 0.000109979
3 *441:C1 *650:S 5.41857e-05
4 *441:C1 *344:14 4.33476e-05
5 *441:C1 *370:61 2.43548e-06
6 *441:C1 *370:70 1.22401e-05
7 *441:C1 *386:14 0
8 *437:B1 *441:C1 0
*RES
1 *440:ZN *441:C1 33.0714 
*END

*D_NET *145 0.00038822
*CONN
*I *442:A I *D AOI21_X1
*I *441:ZN O *D OAI221_X1
*CAP
1 *442:A 8.25371e-05
2 *441:ZN 8.25371e-05
3 *442:A *447:A 3.35822e-05
4 *442:A *344:14 1.32323e-05
5 *442:A *370:14 6.19915e-05
6 *437:B1 *442:A 8.70573e-05
7 *442:B1 *442:A 1.58668e-05
8 *19:14 *442:A 1.14159e-05
*RES
1 *441:ZN *442:A 33.1429 
*END

*D_NET *146 9.45103e-05
*CONN
*I *447:A I *D OAI21_X1
*I *442:ZN O *D AOI21_X1
*CAP
1 *447:A 2.0241e-05
2 *442:ZN 2.0241e-05
3 *447:A *150:20 1.26998e-05
4 *442:A *447:A 3.35822e-05
5 *442:B1 *447:A 7.74632e-06
*RES
1 *442:ZN *447:A 13.25 
*END

*D_NET *147 0.000272778
*CONN
*I *472:B2 I *D OAI21_X1
*I *446:A I *D XNOR2_X1
*I *443:ZN O *D INV_X1
*CAP
1 *472:B2 1.60124e-05
2 *446:A 7.27738e-05
3 *443:ZN 8.03908e-06
4 *147:6 9.68253e-05
5 *446:A *472:A 0
6 *446:A *472:B1 1.52704e-05
7 *446:A *473:B1 4.91213e-06
8 *446:A *149:14 1.73125e-05
9 *472:B2 *472:B1 7.64507e-06
10 *458:A2 *472:B2 8.43215e-07
11 *49:10 *446:A 1.73125e-05
12 *55:8 *446:A 2.27974e-09
13 *56:28 *446:A 5.51112e-06
14 *56:28 *472:B2 8.99555e-06
15 *56:28 *147:6 1.3225e-06
*RES
1 *443:ZN *147:6 5.92857 
2 *147:6 *446:A 12.4643 
3 *147:6 *472:B2 7.25 
*END

*D_NET *148 0.000283568
*CONN
*I *445:B2 I *D AOI21_X1
*I *444:ZN O *D OAI21_X1
*CAP
1 *445:B2 7.45398e-05
2 *444:ZN 7.45398e-05
3 *429:A *445:B2 4.21607e-06
4 *430:A *445:B2 3.09411e-06
5 *430:B2 *445:B2 2.19423e-05
6 *444:A *445:B2 1.26184e-05
7 *444:B1 *445:B2 1.36797e-05
8 *445:B1 *445:B2 2.89018e-05
9 *456:A1 *445:B2 8.93174e-06
10 *457:B1 *445:B2 4.11048e-05
11 *62:12 *445:B2 0
*RES
1 *444:ZN *445:B2 29.9286 
*END

*D_NET *149 0.000504819
*CONN
*I *472:B1 I *D OAI21_X1
*I *446:B I *D XNOR2_X1
*I *445:ZN O *D AOI21_X1
*CAP
1 *472:B1 6.62576e-05
2 *446:B 0
3 *445:ZN 6.10028e-05
4 *149:14 0.00012726
5 *472:B1 *472:A 3.12595e-06
6 *472:B1 *473:B1 1.76665e-06
7 *149:14 *684:A 2.18035e-05
8 *444:B1 *149:14 6.54588e-06
9 *446:A *472:B1 1.52704e-05
10 *446:A *149:14 1.73125e-05
11 *472:B2 *472:B1 7.64507e-06
12 *49:10 *149:14 5.88296e-06
13 *55:8 *472:B1 2.12932e-05
14 *55:8 *149:14 3.1943e-05
15 *55:12 *472:B1 3.35941e-06
16 *62:12 *149:14 1.3743e-06
17 *63:23 *472:B1 8.47823e-06
18 *133:24 *149:14 0.000104497
*RES
1 *445:ZN *149:14 24.6786 
2 *149:14 *446:B 5 
3 *149:14 *472:B1 23.2857 
*END

*D_NET *150 0.000570846
*CONN
*I *447:B1 I *D OAI21_X1
*I *446:ZN O *D XNOR2_X1
*CAP
1 *447:B1 0
2 *446:ZN 0.000158547
3 *150:20 0.000158547
4 *150:20 *671:B 0
5 *150:20 *681:A 1.64551e-05
6 *150:20 *369:73 0
7 *437:B2 *150:20 9.8258e-06
8 *442:B1 *150:20 1.26998e-05
9 *444:B1 *150:20 0.000119071
10 *447:A *150:20 1.26998e-05
11 *456:A1 *150:20 1.65458e-05
12 *681:B *150:20 1.59582e-06
13 *688:B *150:20 0
14 *49:10 *150:20 0
15 *63:21 *150:20 2.24783e-06
16 *133:24 *150:20 4.32298e-05
17 *141:79 *150:20 1.93817e-05
*RES
1 *446:ZN *150:20 45.6072 
2 *150:20 *447:B1 5 
*END

*D_NET *152 6.03073e-05
*CONN
*I *452:B1 I *D AOI22_X1
*I *449:Z O *D MUX2_X1
*CAP
1 *452:B1 2.65992e-05
2 *449:Z 2.65992e-05
3 *452:B1 *452:A1 3.09411e-06
4 *452:B1 *452:B2 2.39679e-06
5 *449:B *452:B1 1.61803e-06
*RES
1 *449:Z *452:B1 12.8571 
*END

*D_NET *153 0.000531289
*CONN
*I *451:A2 I *D NOR2_X1
*I *508:B2 I *D OAI22_X1
*I *534:B1 I *D OAI21_X2
*I *450:ZN O *D NAND2_X2
*CAP
1 *451:A2 0
2 *508:B2 2.40572e-05
3 *534:B1 3.68997e-05
4 *450:ZN 2.62684e-05
5 *153:21 7.16651e-05
6 *153:6 0.000110776
7 *508:B2 *595:C2 1.14165e-05
8 *508:B2 *182:23 9.13447e-05
9 *534:B1 *476:A2 4.9678e-06
10 *534:B1 *508:A2 2.8556e-06
11 *153:6 *220:18 8.43215e-07
12 *153:6 *358:203 5.39365e-06
13 *153:21 *451:A1 7.4606e-06
14 *153:21 *476:A2 1.17623e-05
15 *153:21 *220:18 7.2187e-06
16 *153:21 *358:203 9.89788e-06
17 *509:B2 *534:B1 1.65516e-05
18 *109:18 *534:B1 1.3226e-05
19 *109:44 *534:B1 6.32461e-06
20 *111:82 *534:B1 5.62816e-06
21 *124:8 *534:B1 4.9678e-06
22 *124:8 *153:6 4.4274e-06
23 *124:8 *153:21 1.89851e-06
24 *124:21 *508:B2 5.54369e-05
*RES
1 *450:ZN *153:6 7.75 
2 *153:6 *534:B1 19.8929 
3 *153:6 *153:21 5.75 
4 *153:21 *508:B2 20 
5 *153:21 *451:A2 5 
*END

*D_NET *154 0.00137764
*CONN
*I *452:B2 I *D AOI22_X1
*I *601:B1 I *D AOI22_X1
*I *476:A2 I *D NAND2_X1
*I *451:ZN O *D NOR2_X1
*CAP
1 *452:B2 8.14917e-06
2 *601:B1 7.48371e-05
3 *476:A2 0.000191624
4 *451:ZN 0.000253464
5 *154:34 0.000144827
6 *476:A2 *402:A2 1.80284e-05
7 *476:A2 *451:A1 2.71364e-05
8 *476:A2 *220:18 1.32167e-05
9 *601:B1 *595:B 0
10 *601:B1 *595:C1 0
11 *601:B1 *600:S 9.29568e-05
12 *601:B1 *601:B2 7.72537e-06
13 *601:B1 *236:8 0
14 *601:B1 *257:16 1.66135e-07
15 *601:B1 *358:205 8.34049e-06
16 *154:34 *595:C2 0
17 *154:34 *358:203 0
18 *154:34 *358:229 2.43763e-06
19 *403:A1 *476:A2 1.43238e-06
20 *416:A1 *476:A2 1.49912e-05
21 *416:A2 *476:A2 4.26436e-05
22 *417:A2 *476:A2 7.02006e-06
23 *449:B *452:B2 8.43215e-07
24 *452:B1 *452:B2 2.39679e-06
25 *454:A1 *476:A2 1.24761e-05
26 *466:A2 *601:B1 6.69339e-05
27 *466:A2 *154:34 5.62265e-05
28 *476:A1 *476:A2 1.21774e-06
29 *478:B2 *476:A2 1.23592e-05
30 *534:B1 *476:A2 4.9678e-06
31 *705:CK *601:B1 1.72426e-05
32 *705:CK *154:34 0.000134491
33 *15:14 *601:B1 3.01115e-06
34 *100:21 *476:A2 2.75081e-05
35 *105:65 *476:A2 1.32101e-05
36 *105:73 *476:A2 4.6613e-07
37 *105:77 *476:A2 1.11882e-05
38 *109:8 *476:A2 1.77361e-06
39 *109:18 *154:34 7.70913e-05
40 *124:8 *476:A2 7.03529e-06
41 *125:10 *154:34 6.44217e-06
42 *153:21 *476:A2 1.17623e-05
*RES
1 *451:ZN *476:A2 44.5 
2 *451:ZN *154:34 20.9643 
3 *154:34 *601:B1 20.5 
4 *154:34 *452:B2 10.75 
*END

*D_NET *155 0.000187682
*CONN
*I *453:A I *D OAI21_X1
*I *452:ZN O *D AOI22_X1
*CAP
1 *453:A 6.97887e-05
2 *452:ZN 6.97887e-05
3 *453:A *452:A1 2.42419e-05
4 *453:A *157:37 2.16072e-07
5 *453:A *358:203 1.67775e-05
6 *453:B1 *453:A 2.39679e-06
7 *705:CK *453:A 4.47286e-06
8 *15:14 *453:A 0
9 *125:10 *453:A 0
*RES
1 *452:ZN *453:A 18.5357 
*END

*D_NET *156 0.000393565
*CONN
*I *455:A I *D AOI221_X1
*I *453:ZN O *D OAI21_X1
*CAP
1 *455:A 0.000102538
2 *453:ZN 0.000102538
3 *455:A *452:A1 3.78407e-05
4 *455:A *455:B1 2.39679e-06
5 *455:A *455:C1 4.32144e-07
6 *455:A *667:B 1.79534e-05
7 *455:A *157:37 3.83909e-06
8 *455:A *371:76 9.11327e-06
9 *455:A *371:87 1.63516e-06
10 *455:A *372:65 4.52938e-05
11 *455:B2 *455:A 1.68643e-06
12 *468:A1 *455:A 2.61474e-06
13 *128:51 *455:A 8.43215e-07
14 *128:55 *455:A 6.48413e-05
*RES
1 *453:ZN *455:A 33.1429 
*END

*D_NET *157 0.00314588
*CONN
*I *492:C2 I *D AOI222_X1
*I *484:C1 I *D AOI221_X1
*I *509:C2 I *D AOI221_X1
*I *455:B1 I *D AOI221_X1
*I *468:A2 I *D AOI22_X1
*I *601:A2 I *D AOI22_X1
*I *454:ZN O *D NOR3_X1
*CAP
1 *492:C2 8.71307e-06
2 *484:C1 0
3 *509:C2 0
4 *455:B1 6.01028e-06
5 *468:A2 2.74751e-05
6 *601:A2 0.000144418
7 *454:ZN 0.000110366
8 *157:68 0.000196192
9 *157:37 0.000122218
10 *157:18 0.000330603
11 *157:16 0.000352286
12 *157:8 0.000552679
13 *455:B1 *372:65 2.16072e-07
14 *468:A2 *667:B 1.72405e-05
15 *492:C2 *484:B1 0
16 *601:A2 *600:S 0
17 *601:A2 *603:A 0
18 *601:A2 *190:45 8.34941e-06
19 *601:A2 *358:205 0
20 *157:8 *477:A2 0
21 *157:8 *361:154 2.82905e-05
22 *157:8 *361:169 9.31993e-05
23 *157:16 *648:B 8.57294e-06
24 *157:16 *190:45 1.33157e-05
25 *157:16 *245:16 4.28023e-05
26 *157:16 *264:14 1.89296e-05
27 *157:16 *342:18 0.000143623
28 *157:16 *368:38 0
29 *157:18 *648:A 2.51837e-05
30 *157:18 *190:45 0.000305133
31 *157:18 *358:229 0
32 *157:18 *368:8 2.7938e-05
33 *157:18 *368:38 1.96521e-05
34 *157:37 *462:A 4.64742e-06
35 *157:37 *462:B1 2.81043e-05
36 *157:37 *648:A 0
37 *157:37 *345:12 2.1855e-05
38 *157:37 *372:65 4.69533e-06
39 *157:68 *542:S 3.64772e-05
40 *157:68 *543:A4 0
41 *157:68 *544:B2 2.12131e-05
42 *157:68 *182:90 4.21607e-06
43 *157:68 *367:25 9.55607e-06
44 *403:A2 *157:8 1.11228e-06
45 *416:A2 *157:8 3.16227e-06
46 *453:A *157:37 2.16072e-07
47 *453:B1 *157:37 1.28122e-06
48 *455:A *455:B1 2.39679e-06
49 *455:A *157:37 3.83909e-06
50 *455:B2 *455:B1 2.39679e-06
51 *466:B1 *601:A2 7.87454e-06
52 *468:A1 *468:A2 5.38636e-06
53 *468:B1 *468:A2 0
54 *482:A1 *157:68 4.74346e-05
55 *492:A2 *157:68 0
56 *568:A *157:68 5.02885e-05
57 *601:A1 *601:A2 2.86077e-05
58 *604:A3 *157:8 0
59 *604:A3 *157:68 0
60 *3:20 *157:68 0
61 *14:10 *601:A2 0.000115158
62 *101:107 *157:8 1.26361e-05
63 *125:12 *601:A2 1.5631e-05
64 *125:14 *601:A2 3.24887e-05
65 *128:51 *455:B1 4.32144e-07
66 *128:51 *157:37 2.55029e-06
67 *128:55 *468:A2 7.88124e-05
*RES
1 *454:ZN *157:8 22.2857 
2 *157:8 *157:16 21.67 
3 *157:16 *157:18 16.5357 
4 *157:18 *601:A2 28.5714 
5 *157:18 *157:37 14.75 
6 *157:37 *468:A2 19.3214 
7 *157:37 *455:B1 5.75 
8 *157:16 *509:C2 10 
9 *157:8 *157:68 27.1429 
10 *157:68 *484:C1 5 
11 *157:68 *492:C2 5.92857 
*END

*D_NET *158 0.000132138
*CONN
*I *462:A I *D OAI21_X1
*I *455:ZN O *D AOI221_X1
*CAP
1 *462:A 2.99731e-05
2 *455:ZN 2.99731e-05
3 *462:A *462:B1 2.75732e-05
4 *128:51 *462:A 3.99708e-05
5 *157:37 *462:A 4.64742e-06
*RES
1 *455:ZN *462:A 14.6786 
*END

*D_NET *159 0.000134206
*CONN
*I *457:A I *D AOI21_X1
*I *456:ZN O *D AND3_X1
*CAP
1 *457:A 2.10422e-05
2 *456:ZN 2.10422e-05
3 *456:A1 *457:A 5.59765e-05
4 *457:B1 *457:A 4.44127e-06
5 *457:B2 *457:A 2.14856e-06
6 *56:17 *457:A 3.09411e-06
7 *133:24 *457:A 2.64615e-05
*RES
1 *456:ZN *457:A 24.3929 
*END

*D_NET *160 0.000251848
*CONN
*I *459:A I *D OAI21_X1
*I *607:A I *D OAI211_X2
*I *457:ZN O *D AOI21_X1
*CAP
1 *459:A 5.53157e-06
2 *607:A 4.95731e-05
3 *457:ZN 2.69006e-05
4 *160:10 8.20053e-05
5 *459:A *161:12 7.19036e-06
6 *607:A *473:B1 6.43863e-06
7 *607:A *607:C2 4.24402e-05
8 *160:10 *473:B1 2.10347e-06
9 *160:10 *161:12 0
10 *457:B2 *459:A 7.16188e-07
11 *458:A1 *160:10 2.75346e-06
12 *458:A3 *160:10 6.32202e-06
13 *607:C1 *607:A 5.39659e-06
14 *44:35 *607:A 0
15 *56:28 *459:A 0
16 *56:28 *160:10 3.23723e-07
17 *133:24 *607:A 3.01743e-06
18 *133:24 *160:10 1.11357e-05
*RES
1 *457:ZN *160:10 13.7143 
2 *160:10 *607:A 16.3571 
3 *160:10 *459:A 10.75 
*END

*D_NET *161 0.000302308
*CONN
*I *459:B1 I *D OAI21_X1
*I *607:C2 I *D OAI211_X2
*I *458:ZN O *D NAND3_X1
*CAP
1 *459:B1 0
2 *607:C2 1.28836e-05
3 *458:ZN 5.4727e-05
4 *161:12 6.76106e-05
5 *161:12 *460:A2 1.85657e-05
6 *161:12 *461:B 2.75346e-06
7 *161:12 *473:B1 6.84316e-05
8 *161:12 *607:B 0
9 *458:A1 *161:12 0
10 *458:A3 *161:12 2.23871e-06
11 *459:A *161:12 7.19036e-06
12 *459:B2 *161:12 8.43215e-07
13 *607:A *607:C2 4.24402e-05
14 *607:C1 *607:C2 3.48838e-06
15 *55:12 *161:12 1.46266e-05
16 *133:24 *607:C2 6.50827e-06
17 *160:10 *161:12 0
*RES
1 *458:ZN *161:12 22.8929 
2 *161:12 *607:C2 17.2857 
3 *161:12 *459:B1 5 
*END

*D_NET *162 0.000160084
*CONN
*I *460:A2 I *D NOR2_X1
*I *459:ZN O *D OAI21_X1
*CAP
1 *460:A2 6.68963e-05
2 *459:ZN 6.68963e-05
3 *460:A2 *461:B 7.72537e-06
4 *460:A2 *607:B 0
5 *458:A3 *460:A2 0
6 *606:A2 *460:A2 0
7 *161:12 *460:A2 1.85657e-05
*RES
1 *459:ZN *460:A2 17.3571 
*END

*D_NET *163 0.000274568
*CONN
*I *461:B I *D XOR2_X1
*I *460:ZN O *D NOR2_X1
*CAP
1 *461:B 5.18965e-05
2 *460:ZN 5.18965e-05
3 *461:B *473:B1 6.44127e-05
4 *458:A3 *461:B 0
5 *460:A2 *461:B 7.72537e-06
6 *606:A1 *461:B 4.04508e-05
7 *52:14 *461:B 5.54328e-05
8 *161:12 *461:B 2.75346e-06
*RES
1 *460:ZN *461:B 29.8214 
*END

*D_NET *164 0.000923929
*CONN
*I *462:B1 I *D OAI21_X1
*I *461:Z O *D XOR2_X1
*CAP
1 *462:B1 1.58781e-05
2 *461:Z 0.000299785
3 *164:14 0.000315664
4 *164:14 *439:A1 0
5 *164:14 *455:C1 0
6 *164:14 *661:A2 1.30565e-05
7 *164:14 *663:B2 0
8 *164:14 *675:A 0
9 *164:14 *675:B 0
10 *164:14 *683:A 0.000129421
11 *164:14 *241:39 5.47949e-06
12 *164:14 *241:54 1.39211e-05
13 *164:14 *256:23 0
14 *164:14 *371:87 0
15 *461:A *164:14 9.62051e-07
16 *462:A *462:B1 2.75732e-05
17 *468:B1 *164:14 2.98523e-05
18 *663:B1 *164:14 0
19 *30:22 *164:14 0
20 *52:10 *164:14 3.01997e-05
21 *53:8 *164:14 1.11844e-05
22 *128:51 *164:14 0
23 *128:55 *164:14 2.84765e-06
24 *157:37 *462:B1 2.81043e-05
*RES
1 *461:Z *164:14 45.8214 
2 *164:14 *462:B1 12.75 
*END

*D_NET *165 0.000119599
*CONN
*I *470:A1 I *D AND4_X1
*I *463:ZN O *D OR2_X1
*CAP
1 *470:A1 3.86988e-05
2 *463:ZN 3.86988e-05
3 *470:A1 *470:A2 6.57824e-06
4 *470:A1 *470:A3 3.32258e-05
5 *470:A1 *475:A 2.39679e-06
6 *463:A2 *470:A1 0
*RES
1 *463:ZN *470:A1 14.9286 
*END

*D_NET *168 0.000399216
*CONN
*I *470:A2 I *D AND4_X1
*I *466:ZN O *D AOI22_X1
*CAP
1 *470:A2 0.000121733
2 *466:ZN 0.000121733
3 *470:A2 *470:A3 2.39679e-06
4 *470:A2 *475:A 3.11216e-05
5 *470:A2 *475:B1 7.19036e-06
6 *470:A2 *603:A 0
7 *470:A2 *624:A2 8.25592e-06
8 *470:A2 *338:44 0
9 *463:A1 *470:A2 2.08582e-06
10 *463:A2 *470:A2 4.47741e-06
11 *466:B1 *470:A2 0
12 *466:B2 *470:A2 3.28688e-05
13 *470:A1 *470:A2 6.57824e-06
14 *559:A *470:A2 0
15 *666:B *470:A2 0
16 *141:61 *470:A2 7.72792e-06
17 *141:79 *470:A2 5.30473e-05
*RES
1 *466:ZN *470:A2 35.0714 
*END

*D_NET *170 0.00026999
*CONN
*I *470:A3 I *D AND4_X1
*I *468:ZN O *D AOI22_X1
*CAP
1 *470:A3 7.21629e-05
2 *468:ZN 7.21629e-05
3 *470:A3 *470:A4 4.02744e-05
4 *470:A3 *667:B 2.08416e-06
5 *470:A3 *371:76 1.43244e-05
6 *470:A3 *372:55 0
7 *468:B1 *470:A3 2.39679e-06
8 *470:A1 *470:A3 3.32258e-05
9 *470:A2 *470:A3 2.39679e-06
10 *559:A *470:A3 5.86542e-06
11 *603:B1 *470:A3 4.42084e-06
12 *128:55 *470:A3 2.06754e-05
*RES
1 *468:ZN *470:A3 29.6429 
*END

*D_NET *171 0.000121234
*CONN
*I *470:A4 I *D AND4_X1
*I *469:ZN O *D NAND2_X1
*CAP
1 *470:A4 2.03425e-05
2 *469:ZN 2.03425e-05
3 *470:A3 *470:A4 4.02744e-05
4 *559:A *470:A4 4.02744e-05
*RES
1 *469:ZN *470:A4 13.75 
*END

*D_NET *172 0.000206182
*CONN
*I *475:A I *D OAI21_X1
*I *470:ZN O *D AND4_X1
*CAP
1 *475:A 3.18994e-05
2 *470:ZN 3.18994e-05
3 *475:A *475:B1 1.25215e-05
4 *475:A *624:A2 8.07518e-05
5 *470:A1 *475:A 2.39679e-06
6 *470:A2 *475:A 3.11216e-05
7 *141:79 *475:A 1.5592e-05
*RES
1 *470:ZN *475:A 25.5714 
*END

*D_NET *173 6.15864e-05
*CONN
*I *472:A I *D OAI21_X1
*I *471:ZN O *D INV_X1
*CAP
1 *472:A 2.58413e-05
2 *471:ZN 2.58413e-05
3 *446:A *472:A 0
4 *458:A2 *472:A 0
5 *472:B1 *472:A 3.12595e-06
6 *55:8 *472:A 6.77793e-06
*RES
1 *471:ZN *472:A 12.8571 
*END

*D_NET *174 0.000605863
*CONN
*I *473:B1 I *D AOI21_X1
*I *472:ZN O *D OAI21_X1
*CAP
1 *473:B1 0.000175891
2 *472:ZN 0.000175891
3 *473:B1 *474:B 1.25189e-05
4 *473:B1 *267:8 2.83649e-05
5 *446:A *473:B1 4.91213e-06
6 *458:A3 *473:B1 1.60668e-05
7 *461:A *473:B1 4.32144e-07
8 *461:B *473:B1 6.44127e-05
9 *472:B1 *473:B1 1.76665e-06
10 *473:A *473:B1 7.19036e-06
11 *607:A *473:B1 6.43863e-06
12 *609:A2 *473:B1 7.99671e-06
13 *52:14 *473:B1 1.30415e-05
14 *55:12 *473:B1 1.69126e-05
15 *63:23 *473:B1 3.49085e-06
16 *160:10 *473:B1 2.10347e-06
17 *161:12 *473:B1 6.84316e-05
*RES
1 *472:ZN *473:B1 44.9643 
*END

*D_NET *175 0.00044363
*CONN
*I *474:B I *D XOR2_X1
*I *473:ZN O *D AOI21_X1
*CAP
1 *474:B 0.000155688
2 *473:ZN 0.000155688
3 *474:B *610:A1 0.000106622
4 *474:B *610:A2 0
5 *473:B1 *474:B 1.25189e-05
6 *606:A3 *474:B 0
7 *608:A2 *474:B 5.94783e-07
8 *41:21 *474:B 0
9 *53:12 *474:B 1.25189e-05
*RES
1 *473:ZN *474:B 36.8572 
*END

*D_NET *176 0.000768854
*CONN
*I *475:B1 I *D OAI21_X1
*I *474:Z O *D XOR2_X1
*CAP
1 *475:B1 0.000247857
2 *474:Z 0.000247857
3 *475:B1 *597:B1 5.48932e-05
4 *475:B1 *598:A 1.27114e-05
5 *475:B1 *598:B 0
6 *475:B1 *625:A1 7.19036e-06
7 *475:B1 *625:A2 8.21545e-06
8 *475:B1 *630:B 0
9 *475:B1 *630:C1 2.44242e-05
10 *475:B1 *630:C2 7.72537e-06
11 *475:B1 *679:A 0
12 *475:B1 *256:23 3.07768e-05
13 *475:B1 *256:25 4.24423e-05
14 *475:B1 *270:12 0
15 *475:B1 *285:8 1.04048e-06
16 *475:B1 *337:10 0
17 *470:A2 *475:B1 7.19036e-06
18 *475:A *475:B1 1.25215e-05
19 *679:B *475:B1 0
20 *42:6 *475:B1 2.86077e-05
21 *141:61 *475:B1 3.5402e-05
*RES
1 *474:Z *475:B1 49.5 
*END

*D_NET *177 8.74853e-05
*CONN
*I *478:A I *D OAI21_X1
*I *476:ZN O *D NAND2_X1
*CAP
1 *478:A 3.27112e-05
2 *476:ZN 3.27112e-05
3 *478:A *361:169 0
4 *476:A1 *478:A 2.03657e-05
5 *532:B2 *478:A 5.29648e-07
6 *105:73 *478:A 1.16762e-06
*RES
1 *476:ZN *478:A 23.6429 
*END

*D_NET *178 0.000174167
*CONN
*I *478:B1 I *D OAI21_X1
*I *477:ZN O *D NAND2_X1
*CAP
1 *478:B1 2.39891e-05
2 *477:ZN 2.39891e-05
3 *478:B1 *477:A2 8.43215e-07
4 *478:B1 *479:A2 6.37019e-05
5 *476:A1 *478:B1 5.66192e-05
6 *478:B2 *478:B1 8.43215e-07
7 *101:92 *478:B1 4.18166e-06
8 *105:65 *478:B1 0
*RES
1 *477:ZN *478:B1 24.7143 
*END

*D_NET *179 0.000817052
*CONN
*I *479:A2 I *D NAND2_X1
*I *478:ZN O *D OAI21_X1
*CAP
1 *479:A2 0.000153617
2 *478:ZN 0.000153617
3 *479:A2 *477:A2 8.06325e-05
4 *479:A2 *479:A1 6.76267e-05
5 *479:A2 *491:A1 2.59256e-06
6 *479:A2 *491:A2 6.56007e-06
7 *479:A2 *491:A3 1.44762e-05
8 *479:A2 *498:A1 3.25278e-06
9 *479:A2 *500:A 5.81102e-06
10 *479:A2 *542:S 3.58094e-07
11 *479:A2 *340:16 7.11166e-05
12 *479:A2 *358:148 1.61249e-06
13 *476:A1 *479:A2 1.59471e-05
14 *478:B1 *479:A2 6.37019e-05
15 *532:B2 *479:A2 1.52083e-06
16 *1:74 *479:A2 5.44403e-06
17 *101:92 *479:A2 3.6321e-07
18 *105:65 *479:A2 0
19 *117:10 *479:A2 0.000168802
*RES
1 *478:ZN *479:A2 45.1072 
*END

*D_NET *180 0.000295031
*CONN
*I *491:A1 I *D NAND3_X1
*I *479:ZN O *D NAND2_X1
*CAP
1 *491:A1 7.38175e-05
2 *479:ZN 7.38175e-05
3 *491:A1 *479:A1 4.33476e-05
4 *491:A1 *491:A2 2.75346e-06
5 *491:A1 *491:A3 4.31185e-06
6 *491:A1 *182:90 0
7 *491:A1 *340:16 8.30946e-05
8 *479:A2 *491:A1 2.59256e-06
9 *490:B2 *491:A1 1.21774e-06
10 *676:A *491:A1 2.25089e-06
11 *676:B *491:A1 7.82677e-06
*RES
1 *479:ZN *491:A1 20.9286 
*END

*D_NET *181 0.0015003
*CONN
*I *508:A2 I *D OAI22_X1
*I *481:A2 I *D NOR2_X2
*I *614:A2 I *D NAND2_X1
*I *480:ZN O *D OR2_X2
*CAP
1 *508:A2 0.00015238
2 *481:A2 0
3 *614:A2 0.000177274
4 *480:ZN 0
5 *181:23 0.000179704
6 *181:6 0.000204599
7 *508:A2 *451:A1 2.77515e-05
8 *508:A2 *541:A1 2.5724e-05
9 *508:A2 *565:S 3.09143e-06
10 *508:A2 *182:8 2.33082e-05
11 *508:A2 *220:18 4.31744e-05
12 *508:A2 *360:137 1.02675e-05
13 *614:A2 *406:A1 3.69646e-06
14 *614:A2 *450:A1 3.74027e-05
15 *614:A2 *552:A3 0
16 *614:A2 *554:A2 5.44471e-05
17 *614:A2 *555:B1 1.11032e-05
18 *614:A2 *614:A1 6.65423e-06
19 *614:A2 *278:16 0.000100574
20 *614:A2 *359:166 1.36905e-07
21 *614:A2 *359:211 5.46432e-05
22 *614:A2 *360:87 0
23 *614:A2 *383:54 5.05327e-06
24 *181:23 *450:A1 4.24402e-05
25 *181:23 *451:A1 1.0303e-05
26 *181:23 *361:132 7.19036e-06
27 *508:A1 *508:A2 1.30565e-05
28 *534:B1 *508:A2 2.8556e-06
29 *561:A1 *614:A2 5.57603e-05
30 *565:A *508:A2 1.6581e-06
31 *99:31 *508:A2 1.03315e-06
32 *99:31 *614:A2 0
33 *99:31 *181:23 6.65423e-06
34 *99:43 *614:A2 0
35 *105:77 *508:A2 6.17042e-05
36 *109:18 *508:A2 4.03863e-05
37 *109:44 *508:A2 8.63042e-05
38 *111:82 *508:A2 1.37382e-05
39 *112:89 *181:23 0
40 *138:40 *614:A2 3.62279e-05
*RES
1 *480:ZN *181:6 10 
2 *181:6 *614:A2 33.6786 
3 *181:6 *181:23 9.03572 
4 *181:23 *481:A2 5 
5 *181:23 *508:A2 37.4643 
*END

*D_NET *182 0.00291304
*CONN
*I *550:A1 I *D OR2_X1
*I *539:A I *D AOI221_X2
*I *484:A I *D AOI221_X1
*I *545:A1 I *D OR2_X1
*I *594:B2 I *D OAI221_X2
*I *595:C1 I *D OAI211_X2
*I *481:ZN O *D NOR2_X2
*CAP
1 *550:A1 4.40894e-06
2 *539:A 0
3 *484:A 1.81604e-05
4 *545:A1 4.82248e-06
5 *594:B2 4.07596e-06
6 *595:C1 1.86932e-05
7 *481:ZN 6.25196e-05
8 *182:90 0.000182006
9 *182:65 0.000387688
10 *182:47 0.000262183
11 *182:34 0.000101387
12 *182:23 0.000203185
13 *182:8 0.000254009
14 *484:A *484:B1 2.39679e-06
15 *545:A1 *545:A2 7.72792e-06
16 *545:A1 *594:B1 3.09411e-06
17 *550:A1 *550:A2 2.75346e-06
18 *594:B2 *228:28 7.72792e-06
19 *594:B2 *241:22 7.72792e-06
20 *595:C1 *595:C2 6.32202e-06
21 *182:8 *451:A1 1.85139e-05
22 *182:8 *358:203 0
23 *182:23 *594:C2 5.1189e-05
24 *182:23 *595:C2 3.76247e-05
25 *182:23 *245:16 1.79861e-05
26 *182:47 *413:A1 8.82069e-06
27 *182:47 *544:C1 2.07375e-05
28 *182:47 *230:16 8.84643e-06
29 *182:65 *542:A 7.72537e-06
30 *182:65 *542:S 2.75891e-05
31 *182:65 *549:B1 0
32 *182:65 *549:C1 1.94947e-05
33 *182:90 *484:B1 1.2087e-05
34 *182:90 *491:A2 0
35 *182:90 *539:B1 6.42887e-07
36 *182:90 *539:B2 7.16188e-07
37 *182:90 *686:B 1.81144e-05
38 *182:90 *223:16 1.60226e-05
39 *182:90 *367:25 1.00295e-05
40 *392:A *182:65 4.63903e-06
41 *413:B1 *182:47 5.05238e-06
42 *421:A *550:A1 1.87637e-06
43 *421:A *182:47 1.58978e-05
44 *421:A *182:65 8.43215e-07
45 *439:A2 *182:65 0
46 *482:A1 *484:A 2.71958e-06
47 *482:A1 *182:65 0.000178148
48 *482:A1 *182:90 6.6958e-06
49 *482:A2 *484:A 0
50 *484:B2 *484:A 3.93732e-06
51 *484:B2 *182:65 7.02617e-06
52 *484:C2 *484:A 2.39679e-06
53 *484:C2 *182:90 1.60038e-06
54 *491:A1 *182:90 0
55 *492:A2 *182:65 1.4125e-05
56 *492:B1 *182:90 5.71728e-05
57 *508:A2 *182:8 2.33082e-05
58 *508:B2 *182:23 9.13447e-05
59 *601:B1 *595:C1 0
60 *676:A *182:90 2.12604e-05
61 *676:B *182:90 2.47589e-06
62 *705:CK *595:C1 0
63 *705:CK *182:8 1.39292e-05
64 *3:20 *182:90 4.32144e-07
65 *43:12 *182:90 1.18232e-06
66 *57:14 *182:90 2.68097e-05
67 *98:122 *182:65 0
68 *99:31 *182:8 6.09384e-05
69 *100:21 *595:C1 8.58925e-06
70 *100:21 *182:23 9.74733e-05
71 *100:39 *182:23 2.7764e-05
72 *100:39 *182:34 7.73487e-06
73 *100:39 *182:47 1.45461e-05
74 *109:50 *550:A1 4.69702e-07
75 *109:50 *182:65 3.62016e-05
76 *109:59 *550:A1 1.21774e-06
77 *124:21 *182:23 7.53359e-05
78 *124:21 *182:34 1.55894e-05
79 *124:21 *182:47 4.10632e-05
80 *128:10 *182:90 0.000221994
81 *157:68 *182:90 4.21607e-06
*RES
1 *481:ZN *182:8 19.25 
2 *182:8 *595:C1 12.2857 
3 *182:8 *182:23 27.0357 
4 *182:23 *594:B2 10.75 
5 *182:23 *182:34 2.96429 
6 *182:34 *545:A1 10.75 
7 *182:34 *182:47 13.3929 
8 *182:47 *182:65 34.3214 
9 *182:65 *484:A 7.17857 
10 *182:65 *182:90 46.25 
11 *182:90 *539:A 5 
12 *182:47 *550:A1 5.75 
*END

*D_NET *183 0.000266863
*CONN
*I *484:B1 I *D AOI221_X1
*I *482:ZN O *D NOR2_X1
*CAP
1 *484:B1 8.21626e-05
2 *482:ZN 8.21626e-05
3 *484:B1 *491:A2 3.98109e-05
4 *484:B1 *332:6 1.18547e-06
5 *484:B1 *367:40 0
6 *476:A1 *484:B1 0
7 *482:A1 *484:B1 1.26998e-05
8 *484:A *484:B1 2.39679e-06
9 *484:B2 *484:B1 2.39679e-06
10 *484:C2 *484:B1 1.22716e-05
11 *492:C1 *484:B1 0
12 *492:C2 *484:B1 0
13 *57:14 *484:B1 1.96898e-05
14 *182:90 *484:B1 1.2087e-05
*RES
1 *482:ZN *484:B1 30.3929 
*END

*D_NET *185 0.000484348
*CONN
*I *491:A2 I *D NAND3_X1
*I *484:ZN O *D AOI221_X1
*CAP
1 *491:A2 0.000126725
2 *484:ZN 0.000126725
3 *491:A2 *490:B1 1.30457e-06
4 *491:A2 *491:A3 7.94042e-06
5 *491:A2 *542:S 2.30539e-05
6 *491:A2 *367:40 1.42049e-05
7 *479:A2 *491:A2 6.56007e-06
8 *484:B1 *491:A2 3.98109e-05
9 *484:C2 *491:A2 2.25683e-05
10 *490:B2 *491:A2 1.89851e-06
11 *491:A1 *491:A2 2.75346e-06
12 *492:B1 *491:A2 0
13 *492:C1 *491:A2 2.14667e-06
14 *57:14 *491:A2 1.74663e-05
15 *117:10 *491:A2 4.10632e-05
16 *117:31 *491:A2 5.01274e-05
17 *128:10 *491:A2 0
18 *182:90 *491:A2 0
*RES
1 *484:ZN *491:A2 37.1429 
*END

*D_NET *186 0.000229351
*CONN
*I *489:A I *D OAI221_X1
*I *485:ZN O *D NAND2_X1
*CAP
1 *489:A 8.03854e-05
2 *485:ZN 8.03854e-05
3 *489:A *489:B1 2.39679e-06
4 *489:A *489:B2 9.00577e-06
5 *489:A *489:C2 1.26998e-05
6 *489:A *360:38 5.39659e-06
7 *489:A *361:85 8.72084e-07
8 *489:A *361:109 4.16195e-06
9 *1:31 *489:A 0
10 *101:55 *489:A 3.40468e-05
11 *128:10 *489:A 0
*RES
1 *485:ZN *489:A 29.6429 
*END

*D_NET *188 0.000138505
*CONN
*I *489:B1 I *D OAI221_X1
*I *487:ZN O *D AOI21_X1
*CAP
1 *489:B1 5.34719e-05
2 *487:ZN 5.34719e-05
3 *489:B1 *487:A 1.19839e-05
4 *489:B1 *489:B2 1.50966e-05
5 *489:B1 *190:20 2.16072e-07
6 *489:B1 *358:94 1.86809e-06
7 *489:B1 *358:109 0
8 *489:A *489:B1 2.39679e-06
*RES
1 *487:ZN *489:B1 16.7143 
*END

*D_NET *189 0.000472214
*CONN
*I *538:B1 I *D AOI221_X4
*I *489:B2 I *D OAI221_X1
*I *488:ZN O *D OR2_X4
*CAP
1 *538:B1 6.28705e-05
2 *489:B2 6.99565e-05
3 *488:ZN 0
4 *189:6 0.000132827
5 *489:B2 *489:C2 4.04712e-06
6 *489:B2 *358:94 3.51536e-06
7 *489:B2 *360:161 0
8 *489:B2 *360:167 1.88334e-06
9 *538:B1 *538:B2 0
10 *538:B1 *570:B 1.87637e-06
11 *538:B1 *360:167 2.89349e-05
12 *538:B1 *360:182 1.42569e-05
13 *538:B1 *361:208 2.75346e-06
14 *538:B1 *361:214 5.00964e-05
15 *489:A *489:B2 9.00577e-06
16 *489:B1 *489:B2 1.50966e-05
17 *1:31 *489:B2 1.88334e-06
18 *1:40 *489:B2 3.47226e-05
19 *1:40 *538:B1 1.36811e-05
20 *1:59 *538:B1 2.48069e-05
21 *101:55 *489:B2 0
*RES
1 *488:ZN *189:6 10 
2 *189:6 *489:B2 18.75 
3 *189:6 *538:B1 19.4286 
*END

*D_NET *190 0.00445137
*CONN
*I *504:B1 I *D AOI22_X1
*I *631:A1 I *D NAND2_X1
*I *628:A1 I *D NAND3_X1
*I *490:B1 I *D OAI21_X1
*I *489:ZN O *D OAI221_X1
*CAP
1 *504:B1 7.53291e-06
2 *631:A1 5.5694e-05
3 *628:A1 1.76786e-05
4 *490:B1 9.22657e-06
5 *489:ZN 0.000311573
6 *190:49 0.000227924
7 *190:45 0.000505803
8 *190:37 0.000719566
9 *190:20 0.000681581
10 *490:B1 *491:A3 4.35145e-06
11 *504:B1 *510:A1 1.21774e-06
12 *504:B1 *241:22 6.82202e-07
13 *631:A1 *628:A2 1.39839e-06
14 *631:A1 *632:A2 7.74574e-06
15 *631:A1 *633:B1 3.19164e-07
16 *631:A1 *634:A1 7.35445e-06
17 *631:A1 *634:A2 4.32144e-07
18 *631:A1 *634:A3 8.43215e-07
19 *631:A1 *635:A1 3.19164e-07
20 *190:20 *215:20 0
21 *190:20 *342:18 3.94037e-06
22 *190:20 *360:51 0
23 *190:37 *504:B2 1.33994e-05
24 *190:37 *648:B 6.43658e-06
25 *190:37 *342:18 8.33608e-05
26 *190:45 *504:B2 1.72063e-05
27 *190:45 *510:A1 4.42782e-06
28 *190:45 *257:16 0
29 *190:45 *342:10 7.48127e-07
30 *190:45 *348:14 3.26478e-05
31 *190:45 *368:38 0
32 *190:49 *624:B1 0
33 *190:49 *630:C2 0
34 *190:49 *633:A 0
35 *190:49 *636:C1 2.37916e-06
36 *190:49 *241:54 0
37 *190:49 *241:58 0
38 *190:49 *264:24 0.000510477
39 *190:49 *281:25 8.7798e-05
40 *190:49 *281:29 4.18985e-05
41 *190:49 *284:28 1.11258e-05
42 *489:B1 *190:20 2.16072e-07
43 *491:A2 *490:B1 1.30457e-06
44 *493:A2 *190:20 2.35937e-05
45 *601:A2 *190:45 8.34941e-06
46 *44:16 *190:37 1.43824e-05
47 *101:68 *190:20 3.50758e-05
48 *105:12 *190:20 1.07121e-06
49 *112:65 *190:20 3.19164e-07
50 *117:31 *190:37 0.000106559
51 *122:16 *190:37 0.000149966
52 *125:12 *190:45 6.90604e-05
53 *125:47 *190:37 1.66322e-05
54 *125:47 *190:45 0.000325316
55 *125:62 *190:37 1.2631e-06
56 *128:10 *190:20 2.08098e-06
57 *128:51 *504:B1 6.48216e-07
58 *157:16 *190:45 1.33157e-05
59 *157:18 *190:45 0.000305133
*RES
1 *489:ZN *190:20 36.9071 
2 *190:20 *490:B1 15.8571 
3 *190:20 *190:37 20.91 
4 *190:37 *190:45 39.9 
5 *190:45 *190:49 32.1786 
6 *190:49 *628:A1 6.60714 
7 *190:49 *631:A1 10.75 
8 *190:37 *504:B1 10.75 
*END

*D_NET *191 0.00014018
*CONN
*I *491:A3 I *D NAND3_X1
*I *490:ZN O *D OAI21_X1
*CAP
1 *491:A3 4.64092e-05
2 *490:ZN 4.64092e-05
3 *491:A3 *542:S 3.56659e-06
4 *479:A2 *491:A3 1.44762e-05
5 *490:B1 *491:A3 4.35145e-06
6 *491:A1 *491:A3 4.31185e-06
7 *491:A2 *491:A3 7.94042e-06
8 *128:10 *491:A3 1.27148e-05
*RES
1 *490:ZN *491:A3 25.5714 
*END

*D_NET *192 0.000121442
*CONN
*I *502:A1 I *D NAND3_X1
*I *492:ZN O *D AOI222_X1
*CAP
1 *502:A1 4.63336e-05
2 *492:ZN 4.63336e-05
3 *502:A1 *502:A2 2.56807e-05
4 *502:A1 *502:A3 1.87637e-06
5 *502:A1 *529:A 0
6 *502:A1 *298:87 0
7 *502:A1 *367:25 0
8 *493:A1 *502:A1 1.21774e-06
*RES
1 *492:ZN *502:A1 24.8929 
*END

*D_NET *193 0.000124012
*CONN
*I *502:A2 I *D NAND3_X1
*I *493:ZN O *D OR2_X1
*CAP
1 *502:A2 3.51704e-05
2 *493:ZN 3.51704e-05
3 *502:A2 *502:A3 8.97269e-06
4 *502:A2 *529:A 0
5 *502:A2 *341:23 9.5257e-06
6 *502:A2 *367:25 1.86937e-06
7 *502:A1 *502:A2 2.56807e-05
8 *3:12 *502:A2 7.62294e-06
*RES
1 *493:ZN *502:A2 25.0714 
*END

*D_NET *195 0.00113463
*CONN
*I *531:C2 I *D AOI221_X1
*I *496:A1 I *D NOR2_X1
*I *581:A1 I *D NOR2_X1
*I *495:ZN O *D INV_X1
*CAP
1 *531:C2 7.25942e-05
2 *496:A1 2.61991e-05
3 *581:A1 0.000178525
4 *495:ZN 0
5 *195:19 0.000136919
6 *195:6 0.000216651
7 *496:A1 *415:A1 3.46878e-05
8 *496:A1 *496:A2 2.52965e-06
9 *496:A1 *537:A1 1.87637e-06
10 *496:A1 *196:8 2.73619e-05
11 *531:C2 *412:A1 2.6022e-06
12 *531:C2 *489:C2 2.80129e-05
13 *531:C2 *498:A1 0.000154502
14 *531:C2 *530:A2 1.5125e-06
15 *531:C2 *531:A 2.39679e-06
16 *531:C2 *216:12 7.58894e-06
17 *531:C2 *360:184 4.32144e-07
18 *581:A1 *486:A 2.39679e-06
19 *581:A1 *521:B 0
20 *581:A1 *580:A 4.16281e-06
21 *581:A1 *581:A2 2.16072e-07
22 *581:A1 *358:40 1.72426e-05
23 *581:A1 *359:55 2.78915e-05
24 *581:A1 *359:59 1.86937e-06
25 *581:A1 *359:70 2.90224e-06
26 *581:A1 *374:6 3.83783e-05
27 *581:A1 *374:10 7.19036e-06
28 *195:19 *415:A1 2.72171e-06
29 *195:19 *489:C2 7.0096e-06
30 *195:19 *498:A1 1.2203e-05
31 *195:19 *639:A2 5.41015e-05
32 *195:19 *359:70 3.26032e-06
33 *1:22 *581:A1 3.01743e-06
34 *1:31 *581:A1 4.96388e-05
35 *1:31 *195:19 4.12911e-06
36 *1:40 *195:19 1.90574e-06
37 *99:43 *581:A1 0
*RES
1 *495:ZN *195:6 10 
2 *195:6 *581:A1 32.0714 
3 *195:6 *195:19 5.67857 
4 *195:19 *496:A1 13.75 
5 *195:19 *531:C2 20.6429 
*END

*D_NET *196 0.00105792
*CONN
*I *498:A1 I *D NAND2_X1
*I *639:A2 I *D NAND4_X1
*I *496:ZN O *D NOR2_X1
*CAP
1 *498:A1 0.000131908
2 *639:A2 5.28005e-05
3 *496:ZN 2.14179e-05
4 *196:8 0.000206127
5 *498:A1 *412:A1 1.0082e-05
6 *498:A1 *415:A1 9.55318e-06
7 *498:A1 *497:A 1.34524e-05
8 *498:A1 *500:A 3.64148e-05
9 *498:A1 *572:A2 0.000204428
10 *498:A1 *245:16 2.23512e-07
11 *498:A1 *360:223 4.80378e-06
12 *639:A2 *415:A1 1.90192e-05
13 *639:A2 *448:A 5.75863e-06
14 *639:A2 *489:C2 1.49555e-05
15 *639:A2 *496:A2 1.39839e-06
16 *639:A2 *537:A1 3.33445e-06
17 *196:8 *415:A1 4.32144e-07
18 *196:8 *537:A1 3.21555e-05
19 *479:A2 *498:A1 3.25278e-06
20 *496:A1 *196:8 2.73619e-05
21 *531:C2 *498:A1 0.000154502
22 *1:59 *498:A1 8.79186e-06
23 *112:65 *498:A1 2.94435e-05
24 *195:19 *498:A1 1.2203e-05
25 *195:19 *639:A2 5.41015e-05
*RES
1 *496:ZN *196:8 13.25 
2 *196:8 *639:A2 17.2143 
3 *196:8 *498:A1 31.6786 
*END

*D_NET *197 0.000245142
*CONN
*I *498:A2 I *D NAND2_X1
*I *497:ZN O *D OAI21_X1
*CAP
1 *498:A2 3.73255e-05
2 *497:ZN 3.73255e-05
3 *498:A2 *479:A1 0
4 *498:A2 *497:A 5.11191e-06
5 *498:A2 *500:A 1.28391e-05
6 *498:A2 *340:16 5.36887e-05
7 *497:B2 *498:A2 8.97301e-05
8 *499:A2 *498:A2 6.81033e-07
9 *1:74 *498:A2 8.44023e-06
*RES
1 *497:ZN *498:A2 26.4286 
*END

*D_NET *198 0.000104908
*CONN
*I *500:B1 I *D AOI21_X1
*I *498:ZN O *D NAND2_X1
*CAP
1 *500:B1 3.95338e-05
2 *498:ZN 3.95338e-05
3 *500:B1 *500:A 1.01787e-05
4 *500:B1 *500:B2 1.5662e-05
*RES
1 *498:ZN *500:B1 14.9286 
*END

*D_NET *199 9.91229e-05
*CONN
*I *500:B2 I *D AOI21_X1
*I *499:ZN O *D NAND3_X1
*CAP
1 *500:B2 2.19197e-05
2 *499:ZN 2.19197e-05
3 *500:B2 *572:A2 3.96215e-05
4 *500:B1 *500:B2 1.5662e-05
*RES
1 *499:ZN *500:B2 13.75 
*END

*D_NET *200 0.000883515
*CONN
*I *501:A I *D AOI21_X1
*I *500:ZN O *D AOI21_X1
*CAP
1 *501:A 0.000114537
2 *500:ZN 0.000188031
3 *200:10 0.000302568
4 *501:A *501:B2 6.85774e-07
5 *501:A *524:A 5.52959e-06
6 *501:A *524:B 4.29713e-06
7 *501:A *653:B 7.72537e-06
8 *501:A *298:60 0
9 *501:A *298:79 2.16072e-07
10 *501:A *366:12 6.59741e-06
11 *200:10 *524:B 1.52083e-06
12 *200:10 *212:12 9.99297e-05
13 *200:10 *212:14 0.000147209
14 *501:B1 *501:A 2.75346e-06
15 *711:D *501:A 1.91498e-06
*RES
1 *500:ZN *200:10 41.0357 
2 *200:10 *501:A 16.75 
*END

*D_NET *201 0.000287808
*CONN
*I *502:A3 I *D NAND3_X1
*I *501:ZN O *D AOI21_X1
*CAP
1 *502:A3 0.000106878
2 *501:ZN 0.000106878
3 *502:A3 *529:A 1.88334e-06
4 *502:A3 *654:A 3.83453e-06
5 *502:A3 *654:S 2.14856e-06
6 *502:A3 *298:87 0
7 *502:A3 *341:8 9.62051e-07
8 *501:B1 *502:A3 1.42067e-05
9 *502:A1 *502:A3 1.87637e-06
10 *502:A2 *502:A3 8.97269e-06
11 *665:CI *502:A3 1.32732e-05
12 *57:8 *502:A3 3.03523e-06
13 *128:26 *502:A3 2.38593e-05
*RES
1 *501:ZN *502:A3 32.9643 
*END

*D_NET *202 0.000849571
*CONN
*I *504:B2 I *D AOI22_X1
*I *503:ZN O *D XNOR2_X1
*CAP
1 *504:B2 0.000188989
2 *503:ZN 0.000188989
3 *504:B2 *439:A1 2.30003e-05
4 *504:B2 *510:A1 3.02006e-05
5 *504:B2 *673:B 4.88069e-05
6 *504:B2 *335:8 1.66324e-05
7 *504:B2 *335:12 0
8 *504:B2 *368:51 0
9 *504:B2 *369:73 3.5336e-06
10 *439:A2 *504:B2 0.000105625
11 *439:C2 *504:B2 0
12 *444:B1 *504:B2 6.56185e-06
13 *681:B *504:B2 6.45827e-06
14 *20:22 *504:B2 1.4479e-05
15 *20:24 *504:B2 0
16 *125:62 *504:B2 3.47467e-05
17 *128:34 *504:B2 0.000150942
18 *190:37 *504:B2 1.33994e-05
19 *190:45 *504:B2 1.72063e-05
*RES
1 *503:ZN *504:B2 47.1429 
*END

*D_NET *203 8.70745e-05
*CONN
*I *510:A1 I *D NAND2_X1
*I *504:ZN O *D AOI22_X1
*CAP
1 *510:A1 1.95438e-05
2 *504:ZN 1.95438e-05
3 *510:A1 *241:22 8.26038e-06
4 *510:A1 *342:10 1.88334e-06
5 *510:A1 *368:51 1.99688e-06
6 *504:B1 *510:A1 1.21774e-06
7 *504:B2 *510:A1 3.02006e-05
8 *128:51 *510:A1 0
9 *190:45 *510:A1 4.42782e-06
*RES
1 *504:ZN *510:A1 23.0357 
*END

*D_NET *204 8.33421e-05
*CONN
*I *506:A I *D OAI21_X1
*I *505:ZN O *D AOI22_X1
*CAP
1 *506:A 3.52235e-05
2 *505:ZN 3.52235e-05
3 *506:A *583:A 0
4 *506:A *241:22 6.37281e-06
5 *506:A *335:12 0
6 *505:A2 *506:A 6.38328e-07
7 *505:B1 *506:A 2.52965e-06
8 *506:B1 *506:A 3.03512e-06
9 *44:20 *506:A 3.19164e-07
*RES
1 *505:ZN *506:A 14.0357 
*END

*D_NET *205 0.000249115
*CONN
*I *509:A I *D AOI221_X1
*I *506:ZN O *D OAI21_X1
*CAP
1 *509:A 7.11937e-05
2 *506:ZN 7.11937e-05
3 *509:A *509:B1 2.39679e-06
4 *509:A *256:12 1.38361e-05
5 *674:A *509:A 1.72426e-05
6 *30:18 *509:A 2.80752e-05
7 *125:47 *509:A 1.43066e-05
8 *128:51 *509:A 3.08703e-05
*RES
1 *506:ZN *509:A 29.4286 
*END

*D_NET *206 0.000103534
*CONN
*I *508:B1 I *D OAI22_X1
*I *507:ZN O *D NAND2_X1
*CAP
1 *508:B1 4.85366e-05
2 *507:ZN 4.85366e-05
3 *508:B1 *220:18 2.88159e-06
4 *420:A1 *508:B1 2.16072e-07
5 *508:A1 *508:B1 1.21774e-06
6 *125:10 *508:B1 2.14504e-06
*RES
1 *507:ZN *508:B1 14.6786 
*END

*D_NET *207 0.000568373
*CONN
*I *509:B1 I *D AOI221_X1
*I *508:ZN O *D OAI22_X1
*CAP
1 *509:B1 0.000130957
2 *508:ZN 0.000130957
3 *509:B1 *573:A1 0
4 *509:B1 *575:A1 3.89107e-05
5 *509:B1 *575:A2 1.8225e-06
6 *509:B1 *595:C2 0.000182201
7 *509:B1 *220:31 0
8 *509:B1 *256:12 2.21439e-05
9 *509:B1 *348:14 1.71261e-05
10 *509:B1 *368:38 1.25581e-05
11 *509:A *509:B1 2.39679e-06
12 *509:B2 *509:B1 2.92998e-05
13 *30:18 *509:B1 0
*RES
1 *508:ZN *509:B1 39.6786 
*END

*D_NET *208 5.05957e-05
*CONN
*I *510:A2 I *D NAND2_X1
*I *509:ZN O *D AOI221_X1
*CAP
1 *510:A2 1.46956e-05
2 *509:ZN 1.46956e-05
3 *510:A2 *241:22 1.37673e-05
4 *510:A2 *256:12 4.6837e-06
5 *509:C1 *510:A2 2.75346e-06
*RES
1 *509:ZN *510:A2 12.1786 
*END

*D_NET *209 0.000759378
*CONN
*I *580:A I *D INV_X1
*I *519:A1 I *D NAND2_X1
*I *517:S I *D MUX2_X1
*I *516:ZN O *D NAND2_X1
*CAP
1 *580:A 8.85597e-05
2 *519:A1 8.19152e-05
3 *517:S 1.00442e-05
4 *516:ZN 0
5 *209:8 0.000110617
6 *209:4 0.000107217
7 *517:S *517:A 1.68643e-06
8 *517:S *358:8 1.72405e-05
9 *517:S *383:31 1.39839e-06
10 *519:A1 *517:A 7.19036e-06
11 *519:A1 *518:A2 3.83757e-05
12 *519:A1 *577:A1 0
13 *519:A1 *383:31 8.94571e-06
14 *580:A *577:A1 7.42587e-06
15 *580:A *581:A2 2.39679e-06
16 *580:A *678:A 1.51469e-05
17 *580:A *359:21 3.83783e-05
18 *580:A *359:23 6.56185e-06
19 *580:A *359:36 1.97916e-06
20 *580:A *374:6 1.89851e-06
21 *580:A *374:10 2.14856e-06
22 *209:8 *358:8 1.2203e-05
23 *209:8 *358:21 8.14262e-05
24 *577:A2 *519:A1 3.19164e-07
25 *581:A1 *580:A 4.16281e-06
26 *695:D *517:S 1.66988e-05
27 *695:D *209:8 6.84295e-05
28 *696:D *519:A1 1.77697e-05
29 *1:22 *209:8 9.24246e-06
*RES
1 *516:ZN *209:4 5 
2 *209:4 *209:8 10 
3 *209:8 *517:S 11.6786 
4 *209:8 *519:A1 20.1786 
5 *209:4 *580:A 15.8571 
*END

*D_NET *210 0.000112478
*CONN
*I *519:A2 I *D NAND2_X1
*I *518:ZN O *D NAND2_X1
*CAP
1 *519:A2 2.21837e-05
2 *518:ZN 2.21837e-05
3 *519:A2 *298:12 6.81111e-05
*RES
1 *518:ZN *519:A2 23.6429 
*END

*D_NET *211 0.00018766
*CONN
*I *521:B I *D XNOR2_X1
*I *520:ZN O *D NAND2_X1
*CAP
1 *521:B 5.80879e-05
2 *520:ZN 5.80879e-05
3 *521:B *521:A 1.74934e-05
4 *521:B *298:12 1.09602e-05
5 *521:B *374:25 2.67562e-05
6 *581:A1 *521:B 0
7 *99:43 *521:B 1.62742e-05
*RES
1 *520:ZN *521:B 27.8929 
*END

*D_NET *212 0.00152476
*CONN
*I *524:B I *D XNOR2_X1
*I *527:A1 I *D OR2_X1
*I *523:ZN O *D NAND4_X1
*CAP
1 *524:B 4.74754e-05
2 *527:A1 2.26741e-05
3 *523:ZN 0.000232038
4 *212:14 0.000178694
5 *212:12 0.000340582
6 *524:B *524:A 2.27826e-05
7 *524:B *299:35 7.80122e-06
8 *527:A1 *524:A 7.93489e-06
9 *527:A1 *526:A1 2.39679e-06
10 *527:A1 *298:60 0
11 *212:12 *571:A1 2.12838e-05
12 *212:12 *571:A2 4.76443e-07
13 *212:12 *216:8 2.20672e-06
14 *212:12 *298:12 3.19228e-05
15 *212:12 *298:41 1.4184e-05
16 *212:12 *298:60 5.23419e-05
17 *212:12 *299:10 3.27364e-05
18 *212:12 *359:70 5.01532e-06
19 *212:12 *360:25 7.10056e-06
20 *212:12 *374:36 2.38363e-05
21 *212:14 *298:60 0.000125549
22 *212:14 *299:35 1.44385e-05
23 *396:A *524:B 0
24 *410:A *212:12 1.81046e-05
25 *501:A *524:B 4.29713e-06
26 *639:A1 *212:12 1.11198e-05
27 *641:A2 *212:12 4.31977e-05
28 *699:D *524:B 5.91186e-06
29 *99:43 *212:12 0
30 *200:10 *524:B 1.52083e-06
31 *200:10 *212:12 9.99297e-05
32 *200:10 *212:14 0.000147209
*RES
1 *523:ZN *212:12 44.6607 
2 *212:12 *212:14 20.9464 
3 *212:14 *527:A1 12.25 
4 *212:14 *524:B 16.0357 
*END

*D_NET *213 0.000101445
*CONN
*I *527:A2 I *D OR2_X1
*I *526:ZN O *D NAND2_X1
*CAP
1 *527:A2 8.20498e-06
2 *526:ZN 8.20498e-06
3 *527:A2 *401:A 4.29135e-05
4 *527:A2 *299:35 4.21218e-05
*RES
1 *526:ZN *527:A2 22.2857 
*END

*D_NET *214 0.000241369
*CONN
*I *528:B I *D XNOR2_X1
*I *527:ZN O *D OR2_X1
*CAP
1 *528:B 1.77863e-05
2 *527:ZN 1.77863e-05
3 *528:B *401:A 9.48921e-05
4 *528:B *362:10 0.000107887
5 *528:B *364:10 3.01743e-06
*RES
1 *527:ZN *528:B 25.6786 
*END

*D_NET *215 0.00115613
*CONN
*I *532:A I *D AOI21_X1
*I *531:B1 I *D AOI221_X1
*I *529:ZN O *D INV_X1
*CAP
1 *532:A 9.16528e-06
2 *531:B1 3.37213e-05
3 *529:ZN 0.000422301
4 *215:20 0.000465188
5 *531:B1 *500:A 5.97404e-06
6 *531:B1 *531:A 7.19036e-06
7 *531:B1 *533:A 5.92396e-05
8 *531:B1 *360:182 7.72792e-06
9 *531:B1 *360:184 2.39679e-06
10 *531:B1 *361:214 5.44245e-06
11 *532:A *412:A1 1.68643e-06
12 *532:A *532:B1 2.39679e-06
13 *532:A *533:A 1.17691e-05
14 *215:20 *529:A 1.95635e-06
15 *215:20 *298:79 0
16 *215:20 *299:35 1.57017e-05
17 *499:A3 *532:A 4.32144e-07
18 *572:B2 *532:A 2.39679e-06
19 *1:59 *531:B1 9.43832e-05
20 *1:59 *532:A 7.06488e-06
21 *190:20 *215:20 0
*RES
1 *529:ZN *215:20 43.6529 
2 *215:20 *531:B1 16.0357 
3 *215:20 *532:A 11.3929 
*END

*D_NET *216 0.000495828
*CONN
*I *571:A2 I *D OR2_X1
*I *538:B2 I *D AOI221_X4
*I *531:C1 I *D AOI221_X1
*I *530:ZN O *D NOR2_X2
*CAP
1 *571:A2 2.1242e-05
2 *538:B2 7.14294e-05
3 *531:C1 0
4 *530:ZN 3.31855e-05
5 *216:12 0.000117784
6 *216:8 0.000100782
7 *538:B2 *531:A 8.98274e-07
8 *538:B2 *533:A 7.19036e-06
9 *571:A2 *412:A1 1.07633e-05
10 *571:A2 *530:A1 0
11 *571:A2 *530:A2 0
12 *571:A2 *571:A1 6.30856e-06
13 *216:8 *412:A1 1.29249e-05
14 *216:8 *489:C2 2.11407e-05
15 *216:12 *412:A1 1.22438e-05
16 *216:12 *530:A2 0
17 *410:A *216:8 1.72191e-05
18 *531:C2 *216:12 7.58894e-06
19 *532:B2 *538:B2 4.79629e-05
20 *532:B2 *216:12 2.39679e-06
21 *538:B1 *538:B2 0
22 *572:B2 *571:A2 2.08416e-06
23 *572:B2 *216:12 0
24 *212:12 *571:A2 4.76443e-07
25 *212:12 *216:8 2.20672e-06
*RES
1 *530:ZN *216:8 15 
2 *216:8 *216:12 9.75 
3 *216:12 *531:C1 5 
4 *216:12 *538:B2 13.3929 
5 *216:8 *571:A2 12.8571 
*END

*D_NET *217 0.0003574
*CONN
*I *533:A I *D OAI21_X1
*I *531:ZN O *D AOI221_X1
*CAP
1 *533:A 5.07015e-05
2 *531:ZN 5.07015e-05
3 *533:A *500:A 9.22938e-05
4 *533:A *531:A 3.09411e-06
5 *533:A *533:B1 3.35822e-05
6 *499:A3 *533:A 3.83757e-05
7 *531:B1 *533:A 5.92396e-05
8 *532:A *533:A 1.17691e-05
9 *538:B2 *533:A 7.19036e-06
10 *1:59 *533:A 4.12796e-06
11 *1:70 *533:A 6.32461e-06
*RES
1 *531:ZN *533:A 29.5 
*END

*D_NET *218 0.000116442
*CONN
*I *533:B1 I *D OAI21_X1
*I *532:ZN O *D AOI21_X1
*CAP
1 *533:B1 3.79561e-05
2 *532:ZN 3.79561e-05
3 *533:B1 *412:A1 5.72955e-06
4 *499:A3 *533:B1 0
5 *533:A *533:B1 3.35822e-05
6 *533:B2 *533:B1 1.21774e-06
*RES
1 *532:ZN *533:B1 14.8571 
*END

*D_NET *219 0.000660766
*CONN
*I *604:A1 I *D NAND3_X2
*I *536:A1 I *D NAND2_X1
*I *533:ZN O *D OAI21_X1
*CAP
1 *604:A1 0
2 *536:A1 2.97305e-05
3 *533:ZN 0.000110634
4 *219:14 0.000140364
5 *536:A1 *535:A2 6.61179e-05
6 *219:14 *411:A1 0
7 *219:14 *477:A2 1.87407e-05
8 *219:14 *358:159 1.22133e-05
9 *412:A2 *219:14 2.44242e-05
10 *476:A1 *536:A1 1.87931e-05
11 *499:A3 *219:14 5.11318e-06
12 *533:B2 *219:14 3.21622e-05
13 *604:A3 *536:A1 0.000114991
14 *1:74 *219:14 6.34587e-05
15 *101:77 *219:14 8.44023e-06
16 *101:92 *219:14 0
17 *128:10 *219:14 1.55838e-05
*RES
1 *533:ZN *219:14 29.3214 
2 *219:14 *536:A1 21.3571 
3 *219:14 *604:A1 5 
*END

*D_NET *220 0.00273026
*CONN
*I *593:A2 I *D NAND2_X1
*I *549:C2 I *D AOI221_X2
*I *544:C2 I *D AOI221_X2
*I *539:B1 I *D AOI221_X2
*I *535:A2 I *D NAND2_X1
*I *574:A2 I *D AND2_X1
*I *534:ZN O *D OAI21_X2
*CAP
1 *593:A2 3.65087e-06
2 *549:C2 4.42813e-05
3 *544:C2 0
4 *539:B1 8.78026e-05
5 *535:A2 4.6444e-05
6 *574:A2 7.23598e-06
7 *534:ZN 0.000156782
8 *220:47 0.000239287
9 *220:43 0.000138175
10 *220:41 0.000208257
11 *220:31 0.000194038
12 *220:18 0.000223564
13 *535:A2 *535:A1 2.52965e-06
14 *535:A2 *604:A2 2.39679e-06
15 *539:B1 *539:B2 2.75346e-06
16 *539:B1 *539:C1 9.57492e-07
17 *539:B1 *333:19 2.08098e-06
18 *539:B1 *367:40 1.68643e-06
19 *549:C2 *682:A 8.8265e-05
20 *574:A2 *574:A1 2.39679e-06
21 *593:A2 *241:22 7.72792e-06
22 *593:A2 *256:12 2.25089e-06
23 *220:18 *394:A 2.37429e-06
24 *220:18 *451:A1 1.10905e-06
25 *220:18 *348:14 1.00488e-05
26 *220:18 *348:18 3.40914e-06
27 *220:31 *547:S 3.82527e-05
28 *220:31 *575:A2 4.09741e-05
29 *220:31 *595:C2 0
30 *220:31 *348:14 4.4625e-07
31 *220:41 *504:A1 4.26557e-05
32 *220:41 *544:C1 1.36793e-05
33 *220:41 *545:A2 1.85634e-05
34 *220:41 *547:S 0
35 *220:41 *549:A 2.39679e-06
36 *220:41 *594:A 3.33433e-05
37 *220:41 *595:C2 4.50914e-06
38 *220:41 *227:6 3.06546e-05
39 *220:41 *228:28 6.63139e-06
40 *220:41 *241:22 1.13786e-05
41 *220:41 *256:12 1.12491e-05
42 *220:41 *368:51 0
43 *220:43 *544:C1 7.11918e-06
44 *220:43 *549:A 3.64037e-05
45 *220:43 *227:6 4.77767e-05
46 *220:47 *544:B2 1.27666e-06
47 *220:47 *544:C1 3.65322e-06
48 *220:47 *568:S 7.0367e-06
49 *220:47 *223:16 8.21902e-06
50 *220:47 *367:27 0
51 *220:47 *367:78 0
52 *413:C2 *220:41 7.49745e-06
53 *476:A1 *535:A2 0.000140087
54 *476:A1 *539:B1 7.5313e-05
55 *476:A2 *220:18 1.32167e-05
56 *482:A1 *549:C2 0.000124118
57 *484:C2 *539:B1 0
58 *507:A2 *574:A2 2.16072e-07
59 *507:A2 *220:18 4.26902e-05
60 *507:A2 *220:31 4.19223e-05
61 *508:A2 *220:18 4.31744e-05
62 *508:B1 *220:18 2.88159e-06
63 *509:B1 *220:31 0
64 *509:B2 *220:18 0.000128468
65 *536:A1 *535:A2 6.61179e-05
66 *604:A3 *535:A2 1.6531e-05
67 *680:A *220:47 1.97717e-05
68 *1:74 *535:A2 1.18232e-06
69 *25:6 *220:41 7.09501e-06
70 *43:12 *539:B1 3.6954e-05
71 *43:23 *535:A2 7.59667e-06
72 *43:23 *539:B1 6.39606e-05
73 *43:23 *220:47 4.9678e-06
74 *100:8 *220:18 0
75 *100:21 *220:18 7.75524e-06
76 *100:39 *549:C2 2.30782e-06
77 *117:31 *220:41 4.51692e-06
78 *124:8 *220:18 1.74934e-05
79 *125:10 *574:A2 0
80 *125:10 *220:18 0
81 *153:6 *220:18 8.43215e-07
82 *153:21 *220:18 7.2187e-06
83 *182:90 *539:B1 6.42887e-07
*RES
1 *534:ZN *220:18 40.3214 
2 *220:18 *574:A2 10.75 
3 *220:18 *220:31 13.3929 
4 *220:31 *220:41 26.3571 
5 *220:41 *220:43 5.25 
6 *220:43 *220:47 16.25 
7 *220:47 *535:A2 18.4643 
8 *220:47 *539:B1 22.0357 
9 *220:43 *544:C2 5 
10 *220:41 *549:C2 22.0357 
11 *220:31 *593:A2 5.75 
*END

*D_NET *221 0.000127793
*CONN
*I *536:A2 I *D NAND2_X1
*I *604:A2 I *D NAND3_X2
*I *535:ZN O *D NAND2_X1
*CAP
1 *536:A2 2.16091e-05
2 *604:A2 3.12395e-05
3 *535:ZN 0
4 *221:4 5.28486e-05
5 *536:A2 *535:A1 2.39679e-06
6 *536:A2 *542:S 1.25215e-05
7 *536:A2 *544:A 0
8 *535:A2 *604:A2 2.39679e-06
9 *1:74 *604:A2 4.78054e-06
*RES
1 *535:ZN *221:4 5 
2 *221:4 *604:A2 8.78572 
3 *221:4 *536:A2 7.85714 
*END

*D_NET *222 3.84099e-05
*CONN
*I *538:C1 I *D AOI221_X4
*I *537:ZN O *D AND2_X1
*CAP
1 *538:C1 1.15535e-05
2 *537:ZN 1.15535e-05
3 *538:C1 *360:167 4.17701e-06
4 *538:C1 *361:120 1.88334e-06
5 *538:C1 *361:208 9.24246e-06
*RES
1 *537:ZN *538:C1 21.6071 
*END

*D_NET *223 0.00151077
*CONN
*I *539:C1 I *D AOI221_X2
*I *544:B1 I *D AOI221_X2
*I *549:B1 I *D AOI221_X2
*I *538:ZN O *D AOI221_X4
*CAP
1 *539:C1 4.22118e-05
2 *544:B1 0
3 *549:B1 9.88972e-05
4 *538:ZN 0.000136155
5 *223:16 0.000269007
6 *223:8 0.000348477
7 *539:C1 *539:C2 2.75346e-06
8 *549:B1 *543:A4 3.39289e-05
9 *549:B1 *549:A 6.54625e-06
10 *549:B1 *568:S 0
11 *549:B1 *367:78 5.23506e-05
12 *549:B1 *380:42 2.39679e-06
13 *223:8 *479:A1 5.26761e-06
14 *223:8 *500:A 0
15 *223:16 *542:S 1.91498e-06
16 *223:16 *543:A4 0
17 *223:16 *544:B2 3.28714e-05
18 *223:16 *333:8 4.78054e-06
19 *223:16 *333:19 4.77786e-06
20 *484:B2 *549:B1 8.13956e-06
21 *490:A *223:16 1.18547e-06
22 *499:A2 *223:8 1.10197e-05
23 *539:B1 *539:C1 9.57492e-07
24 *540:A *539:C1 3.13495e-05
25 *676:A *539:C1 8.34049e-06
26 *676:A *223:8 1.94663e-05
27 *676:B *223:8 4.32298e-05
28 *676:B *223:16 8.80286e-06
29 *680:A *223:16 5.38905e-05
30 *680:B *223:16 2.83125e-05
31 *43:12 *539:C1 4.24402e-05
32 *43:12 *223:16 1.07021e-05
33 *43:23 *223:16 1.63647e-05
34 *101:107 *223:16 0
35 *109:44 *549:B1 0
36 *109:50 *549:B1 7.21335e-06
37 *128:10 *539:C1 3.43575e-05
38 *128:10 *223:8 0.000118418
39 *182:65 *549:B1 0
40 *182:90 *223:16 1.60226e-05
41 *220:47 *223:16 8.21902e-06
*RES
1 *538:ZN *223:8 27.8929 
2 *223:8 *223:16 25.7857 
3 *223:16 *549:B1 26.9286 
4 *223:16 *544:B1 5 
5 *223:8 *539:C1 16.75 
*END

*D_NET *224 0.000719259
*CONN
*I *548:A3 I *D AND4_X1
*I *543:A3 I *D AND4_X1
*I *565:S I *D MUX2_X1
*I *541:ZN O *D NOR2_X1
*CAP
1 *548:A3 0
2 *543:A3 2.61496e-05
3 *565:S 2.14052e-05
4 *541:ZN 2.57128e-05
5 *224:25 8.60133e-05
6 *224:8 0.000106982
7 *543:A3 *543:A4 3.41146e-05
8 *543:A3 *544:A 0
9 *543:A3 *548:A4 2.75346e-06
10 *224:8 *566:A2 8.43215e-07
11 *224:25 *548:A4 1.37673e-05
12 *224:25 *228:28 0
13 *224:25 *361:184 2.00861e-05
14 *417:A2 *565:S 6.63274e-05
15 *417:A2 *224:25 7.39436e-05
16 *508:A2 *565:S 3.09143e-06
17 *534:B2 *565:S 6.57857e-05
18 *534:B2 *224:25 3.98473e-05
19 *548:A2 *543:A3 5.06354e-05
20 *565:A *565:S 7.19036e-06
21 *565:B *224:8 2.59394e-05
22 *1:85 *224:8 2.42694e-06
23 *1:85 *224:25 6.0876e-06
24 *1:98 *224:25 3.74027e-05
25 *101:107 *543:A3 2.75346e-06
*RES
1 *541:ZN *224:8 12.75 
2 *224:8 *565:S 14.3929 
3 *224:8 *224:25 14.0714 
4 *224:25 *543:A3 9.75 
5 *224:25 *548:A3 5 
*END

*D_NET *225 0.000530412
*CONN
*I *543:A4 I *D AND4_X1
*I *542:Z O *D MUX2_X1
*CAP
1 *543:A4 0.00019286
2 *542:Z 0.00019286
3 *543:A4 *542:A 1.12721e-05
4 *543:A4 *544:A 9.62051e-07
5 *543:A4 *544:B2 2.5273e-05
6 *543:A4 *228:28 1.12932e-05
7 *484:B2 *543:A4 0
8 *492:A2 *543:A4 0
9 *543:A3 *543:A4 3.41146e-05
10 *549:B1 *543:A4 3.39289e-05
11 *568:A *543:A4 2.19363e-06
12 *4:10 *543:A4 8.47972e-06
13 *6:20 *543:A4 1.71736e-05
14 *109:44 *543:A4 0
15 *157:68 *543:A4 0
16 *223:16 *543:A4 0
*RES
1 *542:Z *543:A4 41.8214 
*END

*D_NET *226 0.000100406
*CONN
*I *544:A I *D AOI221_X2
*I *543:ZN O *D AND4_X1
*CAP
1 *544:A 4.6305e-05
2 *543:ZN 4.6305e-05
3 *544:A *544:B2 6.19568e-06
4 *544:A *548:A4 6.38328e-07
5 *536:A2 *544:A 0
6 *543:A3 *544:A 0
7 *543:A4 *544:A 9.62051e-07
*RES
1 *543:ZN *544:A 14.8571 
*END

*D_NET *227 0.00033451
*CONN
*I *545:A2 I *D OR2_X1
*I *594:B1 I *D OAI221_X2
*I *544:ZN O *D AOI221_X2
*CAP
1 *545:A2 6.60947e-06
2 *594:B1 3.13667e-05
3 *544:ZN 5.87931e-05
4 *227:6 9.67692e-05
5 *594:B1 *228:28 1.92926e-05
6 *227:6 *228:28 1.07683e-05
7 *417:A1 *227:6 3.09411e-06
8 *545:A1 *545:A2 7.72792e-06
9 *545:A1 *594:B1 3.09411e-06
10 *220:41 *545:A2 1.85634e-05
11 *220:41 *227:6 3.06546e-05
12 *220:43 *227:6 4.77767e-05
*RES
1 *544:ZN *227:6 12.75 
2 *227:6 *594:B1 9.03572 
3 *227:6 *545:A2 6.75 
*END

*D_NET *228 0.000669026
*CONN
*I *548:A4 I *D AND4_X1
*I *547:Z O *D MUX2_X1
*CAP
1 *548:A4 8.30715e-06
2 *547:Z 0.000200607
3 *228:28 0.000208914
4 *228:28 *504:A1 9.66279e-06
5 *228:28 *547:A 5.59897e-05
6 *228:28 *549:A 2.40596e-05
7 *228:28 *594:A 2.52965e-06
8 *228:28 *241:10 3.69615e-06
9 *228:28 *241:22 2.55492e-05
10 *417:A1 *228:28 7.72792e-06
11 *417:A2 *228:28 1.8031e-05
12 *505:A2 *228:28 2.38892e-05
13 *543:A3 *548:A4 2.75346e-06
14 *543:A4 *228:28 1.12932e-05
15 *544:A *548:A4 6.38328e-07
16 *594:B1 *228:28 1.92926e-05
17 *594:B2 *228:28 7.72792e-06
18 *25:6 *228:28 7.19036e-06
19 *220:41 *228:28 6.63139e-06
20 *224:25 *548:A4 1.37673e-05
21 *224:25 *228:28 0
22 *227:6 *228:28 1.07683e-05
*RES
1 *547:Z *228:28 49.3214 
2 *228:28 *548:A4 6.25 
*END

*D_NET *229 0.000308888
*CONN
*I *549:A I *D AOI221_X2
*I *548:ZN O *D AND4_X1
*CAP
1 *549:A 7.97697e-05
2 *548:ZN 7.97697e-05
3 *549:A *544:C1 3.64037e-05
4 *549:A *568:S 3.33776e-05
5 *549:A *241:10 1.01606e-05
6 *549:B1 *549:A 6.54625e-06
7 *220:41 *549:A 2.39679e-06
8 *220:43 *549:A 3.64037e-05
9 *228:28 *549:A 2.40596e-05
*RES
1 *548:ZN *549:A 30.7857 
*END

*D_NET *230 0.0016728
*CONN
*I *550:A2 I *D OR2_X1
*I *595:C2 I *D OAI211_X2
*I *549:ZN O *D AOI221_X2
*CAP
1 *550:A2 3.4882e-05
2 *595:C2 0.00021427
3 *549:ZN 5.26402e-05
4 *230:16 0.000301792
5 *550:A2 *547:A 1.64981e-06
6 *595:C2 *594:A 6.517e-05
7 *595:C2 *348:14 1.14119e-05
8 *595:C2 *358:203 0
9 *595:C2 *358:229 0
10 *230:16 *504:A1 2.49491e-06
11 *230:16 *549:C1 7.79361e-06
12 *230:16 *370:29 4.6678e-06
13 *230:16 *380:42 3.09143e-06
14 *421:A *550:A2 1.25189e-05
15 *505:A2 *550:A2 1.23811e-06
16 *505:A2 *595:C2 1.27068e-06
17 *508:B2 *595:C2 1.14165e-05
18 *509:B1 *595:C2 0.000182201
19 *550:A1 *550:A2 2.75346e-06
20 *595:C1 *595:C2 6.32202e-06
21 *705:CK *595:C2 8.26038e-06
22 *20:22 *550:A2 5.62905e-06
23 *100:39 *230:16 3.1257e-06
24 *109:50 *230:16 2.66553e-05
25 *109:59 *550:A2 1.11435e-06
26 *115:60 *230:16 2.60908e-05
27 *115:73 *230:16 2.51932e-05
28 *117:31 *595:C2 6.23043e-05
29 *124:21 *550:A2 5.59234e-05
30 *124:21 *595:C2 0.00048994
31 *154:34 *595:C2 0
32 *182:23 *595:C2 3.76247e-05
33 *182:47 *230:16 8.84643e-06
34 *220:31 *595:C2 0
35 *220:41 *595:C2 4.50914e-06
*RES
1 *549:ZN *230:16 24.3357 
2 *230:16 *595:C2 45.8929 
3 *230:16 *550:A2 14.6071 
*END

*D_NET *231 0.000170878
*CONN
*I *555:B1 I *D OAI21_X1
*I *552:ZN O *D AND3_X1
*CAP
1 *555:B1 2.57987e-05
2 *552:ZN 2.57987e-05
3 *555:B1 *552:A3 3.58853e-07
4 *555:B1 *359:211 4.24423e-05
5 *555:B1 *360:79 6.53767e-05
6 *614:A2 *555:B1 1.11032e-05
*RES
1 *552:ZN *555:B1 24.3214 
*END

*D_NET *232 0.000605914
*CONN
*I *562:B1 I *D AOI22_X1
*I *589:B1 I *D AOI22_X1
*I *554:A2 I *D AND2_X1
*I *553:ZN O *D NOR2_X1
*CAP
1 *562:B1 6.91921e-05
2 *589:B1 2.07175e-05
3 *554:A2 3.278e-05
4 *553:ZN 0
5 *232:23 9.83548e-05
6 *232:4 4.12252e-05
7 *554:A2 *553:A1 7.62251e-06
8 *554:A2 *554:A1 2.86649e-06
9 *554:A2 *361:264 7.72537e-06
10 *554:A2 *361:271 1.26998e-05
11 *562:B1 *562:A2 7.13151e-06
12 *562:B1 *562:B2 1.19839e-05
13 *562:B1 *589:A2 7.19036e-06
14 *562:B1 *361:271 4.31719e-05
15 *562:B1 *361:275 4.97191e-06
16 *562:B1 *372:26 2.52965e-06
17 *562:B1 *373:22 1.84283e-05
18 *562:B1 *373:37 1.20555e-05
19 *589:B1 *589:A2 1.66988e-05
20 *589:B1 *373:37 1.0303e-05
21 *589:B1 *381:21 3.12145e-06
22 *589:B1 *383:65 1.08381e-05
23 *232:23 *589:A2 2.89018e-05
24 *556:A *554:A2 3.09143e-06
25 *561:A1 *554:A2 5.33968e-05
26 *561:A1 *589:B1 1.52538e-05
27 *561:A1 *232:23 8.56664e-06
28 *614:A2 *554:A2 5.44471e-05
29 *101:23 *554:A2 6.48216e-07
*RES
1 *553:ZN *232:4 5 
2 *232:4 *554:A2 20.4643 
3 *232:4 *232:23 6.60714 
4 *232:23 *589:B1 13.2857 
5 *232:23 *562:B1 19.25 
*END

*D_NET *233 0.000114788
*CONN
*I *555:B2 I *D OAI21_X1
*I *554:ZN O *D AND2_X1
*CAP
1 *555:B2 4.66087e-05
2 *554:ZN 4.66087e-05
3 *555:B2 *554:A1 0
4 *555:B2 *234:6 1.92742e-05
5 *555:B2 *360:81 7.16188e-07
6 *555:B2 *360:87 7.16188e-07
7 *556:A *555:B2 6.48216e-07
8 *101:23 *555:B2 2.16072e-07
*RES
1 *554:ZN *555:B2 15.2143 
*END

*D_NET *234 0.000342407
*CONN
*I *558:A1 I *D AND2_X1
*I *595:A I *D OAI211_X2
*I *555:ZN O *D OAI21_X1
*CAP
1 *558:A1 0
2 *595:A 2.94961e-05
3 *555:ZN 7.86937e-05
4 *234:6 0.00010819
5 *595:A *595:B 4.96019e-05
6 *595:A *236:8 1.65434e-05
7 *234:6 *552:A3 1.37332e-05
8 *234:6 *554:A1 0
9 *234:6 *556:C1 1.08579e-05
10 *234:6 *558:A2 2.39679e-06
11 *234:6 *360:81 1.21774e-06
12 *466:B1 *234:6 7.66905e-06
13 *555:B2 *234:6 1.92742e-05
14 *556:C2 *595:A 0
15 *556:C2 *234:6 4.73284e-06
*RES
1 *555:ZN *234:6 14.75 
2 *234:6 *595:A 18.6429 
3 *234:6 *558:A1 5 
*END

*D_NET *235 0.000432397
*CONN
*I *557:B2 I *D AOI22_X1
*I *591:B1 I *D AOI221_X1
*I *560:B2 I *D AOI22_X1
*I *556:ZN O *D AOI211_X2
*CAP
1 *557:B2 1.99896e-05
2 *591:B1 7.27959e-06
3 *560:B2 4.11019e-05
4 *556:ZN 0
5 *235:10 0.000115215
6 *235:4 8.68236e-05
7 *557:B2 *557:B1 3.90891e-05
8 *557:B2 *562:A2 3.35822e-05
9 *557:B2 *372:26 2.25089e-06
10 *560:B2 *560:A1 3.35192e-06
11 *560:B2 *562:B2 1.25189e-05
12 *560:B2 *563:A 7.19036e-06
13 *560:B2 *627:A2 2.75346e-06
14 *591:B1 *560:A1 2.11458e-06
15 *591:B1 *591:A 2.75346e-06
16 *591:B1 *591:B2 2.75346e-06
17 *591:B1 *627:A2 3.65322e-06
18 *235:10 *557:A1 1.29374e-05
19 *235:10 *560:A2 2.02955e-06
20 *235:10 *562:B2 1.25324e-05
21 *235:10 *361:279 1.96924e-05
22 *235:10 *381:21 2.78389e-06
23 *563:B2 *560:B2 0
*RES
1 *556:ZN *235:4 5 
2 *235:4 *235:10 17.7143 
3 *235:10 *560:B2 9.67857 
4 *235:10 *591:B1 6.25 
5 *235:4 *557:B2 8.75 
*END

*D_NET *236 0.000259535
*CONN
*I *595:B I *D OAI211_X2
*I *558:A2 I *D AND2_X1
*I *557:ZN O *D AOI22_X1
*CAP
1 *595:B 3.36375e-05
2 *558:A2 8.02849e-06
3 *557:ZN 4.64097e-05
4 *236:8 8.80757e-05
5 *558:A2 *371:28 0
6 *236:8 *600:S 0
7 *236:8 *601:B2 2.30746e-06
8 *466:B1 *558:A2 6.48216e-07
9 *466:B1 *595:B 2.52965e-06
10 *556:C2 *236:8 0
11 *595:A *595:B 4.96019e-05
12 *595:A *236:8 1.65434e-05
13 *601:B1 *595:B 0
14 *601:B1 *236:8 0
15 *705:CK *595:B 0
16 *15:14 *595:B 8.58925e-06
17 *100:21 *595:B 7.66675e-07
18 *234:6 *558:A2 2.39679e-06
*RES
1 *557:ZN *236:8 15 
2 *236:8 *558:A2 10.75 
3 *236:8 *595:B 14.3929 
*END

*D_NET *237 0.000110049
*CONN
*I *563:A I *D OAI21_X1
*I *560:ZN O *D AOI22_X1
*CAP
1 *563:A 2.10265e-05
2 *560:ZN 2.10265e-05
3 *563:A *562:B2 1.72426e-05
4 *563:A *563:B1 4.16485e-05
5 *560:B2 *563:A 7.19036e-06
6 *563:B2 *563:A 1.91498e-06
*RES
1 *560:ZN *563:A 23.0357 
*END

*D_NET *238 0.000559155
*CONN
*I *562:A2 I *D AOI22_X1
*I *589:A2 I *D AOI22_X1
*I *561:ZN O *D NOR2_X1
*CAP
1 *562:A2 5.79497e-05
2 *589:A2 4.22734e-05
3 *561:ZN 3.87518e-05
4 *238:10 0.000138975
5 *562:A2 *557:B1 3.28137e-06
6 *562:A2 *361:271 1.51496e-05
7 *562:A2 *361:275 3.09143e-06
8 *562:A2 *372:26 2.39679e-06
9 *589:A2 *361:264 2.60987e-06
10 *589:A2 *361:271 3.28137e-06
11 *589:A2 *373:37 2.11347e-05
12 *589:A2 *381:21 8.25417e-06
13 *238:10 *552:A3 4.12911e-06
14 *238:10 *556:C1 2.26306e-06
15 *238:10 *557:A1 0
16 *238:10 *381:21 2.70495e-06
17 *556:A *562:A2 4.33502e-05
18 *556:A *238:10 6.78878e-05
19 *557:B2 *562:A2 3.35822e-05
20 *561:A1 *589:A2 1.11989e-07
21 *561:A1 *238:10 8.05465e-06
22 *562:B1 *562:A2 7.13151e-06
23 *562:B1 *589:A2 7.19036e-06
24 *589:B1 *589:A2 1.66988e-05
25 *232:23 *589:A2 2.89018e-05
*RES
1 *561:ZN *238:10 15.75 
2 *238:10 *589:A2 15.6429 
3 *238:10 *562:A2 18.25 
*END

*D_NET *239 0.000242746
*CONN
*I *563:B1 I *D OAI21_X1
*I *562:ZN O *D AOI22_X1
*CAP
1 *563:B1 6.07021e-05
2 *562:ZN 6.07021e-05
3 *563:B1 *560:A2 6.65962e-05
4 *563:B1 *562:B2 7.35912e-06
5 *563:B1 *371:28 0
6 *563:B1 *382:25 5.73772e-06
7 *563:A *563:B1 4.16485e-05
8 *708:D *563:B1 0
*RES
1 *562:ZN *563:B1 27.7143 
*END

*D_NET *240 5.3999e-05
*CONN
*I *566:A2 I *D NOR2_X1
*I *565:Z O *D MUX2_X1
*CAP
1 *566:A2 1.87946e-05
2 *565:Z 1.87946e-05
3 *509:B2 *566:A2 2.39679e-06
4 *565:B *566:A2 6.48216e-07
5 *566:A1 *566:A2 5.33113e-06
6 *1:85 *566:A2 7.19036e-06
7 *224:8 *566:A2 8.43215e-07
*RES
1 *565:Z *566:A2 12.1786 
*END

*D_NET *241 0.00350798
*CONN
*I *568:S I *D MUX2_X1
*I *585:A I *D AOI21_X1
*I *663:A I *D AOI21_X1
*I *597:A I *D AOI21_X1
*I *619:A2 I *D NOR3_X1
*I *622:A2 I *D NOR2_X1
*I *635:A1 I *D NAND2_X1
*I *634:A1 I *D NAND3_X1
*I *661:A1 I *D NOR2_X1
*I *582:A2 I *D NOR2_X1
*I *566:ZN O *D NOR2_X1
*CAP
1 *568:S 9.88704e-05
2 *585:A 3.0356e-05
3 *663:A 7.43924e-06
4 *597:A 4.61838e-06
5 *619:A2 2.28576e-05
6 *622:A2 5.17015e-06
7 *635:A1 7.00722e-06
8 *634:A1 4.72335e-05
9 *661:A1 0
10 *582:A2 0
11 *566:ZN 3.83779e-05
12 *241:64 6.79848e-05
13 *241:60 3.89753e-05
14 *241:58 0.000148677
15 *241:54 0.000263526
16 *241:39 0.000225081
17 *241:33 0.000117516
18 *241:31 0.0001215
19 *241:22 0.000320729
20 *241:10 0.000404979
21 *568:S *544:C1 3.37909e-05
22 *568:S *367:78 7.28295e-05
23 *585:A *584:A2 2.39679e-06
24 *585:A *585:B1 2.39679e-06
25 *585:A *336:8 0
26 *597:A *597:B1 2.39679e-06
27 *597:A *598:B 8.43215e-07
28 *597:A *679:A 7.19036e-06
29 *619:A2 *619:A3 5.33113e-06
30 *619:A2 *636:C1 7.58405e-06
31 *619:A2 *284:28 2.60941e-05
32 *622:A2 *636:A 7.19036e-06
33 *622:A2 *278:27 7.19036e-06
34 *634:A1 *623:A3 2.87703e-06
35 *634:A1 *634:A2 7.19036e-06
36 *634:A1 *636:A 5.44551e-06
37 *635:A1 *636:A 6.48216e-07
38 *663:A *663:B2 4.32144e-07
39 *663:A *256:12 4.32144e-07
40 *241:10 *361:184 2.37864e-05
41 *241:22 *504:A1 1.91498e-06
42 *241:22 *547:A 3.3663e-06
43 *241:22 *583:A 1.27666e-06
44 *241:22 *593:A1 1.25189e-05
45 *241:22 *594:A 2.18617e-05
46 *241:22 *594:C1 1.91954e-06
47 *241:22 *256:12 5.19545e-06
48 *241:22 *335:12 0
49 *241:22 *361:184 0
50 *241:31 *256:12 0
51 *241:33 *660:A1 0
52 *241:33 *256:12 0
53 *241:39 *660:A3 1.40196e-06
54 *241:39 *661:A2 4.78054e-06
55 *241:39 *663:B2 2.03217e-05
56 *241:39 *256:12 0
57 *241:54 *598:A 1.27666e-06
58 *241:54 *598:B 3.09143e-06
59 *241:54 *660:A3 7.16188e-07
60 *241:54 *662:B 4.33639e-06
61 *241:54 *679:A 1.26998e-05
62 *241:54 *256:23 6.707e-06
63 *241:54 *264:16 0
64 *241:54 *264:24 0
65 *241:58 *630:C1 1.045e-05
66 *241:58 *630:C2 2.19179e-05
67 *241:58 *633:A 2.26343e-05
68 *241:58 *256:23 2.26949e-05
69 *241:58 *256:25 1.20923e-05
70 *241:58 *257:33 1.07931e-05
71 *241:58 *285:8 0
72 *241:60 *633:A 2.00778e-05
73 *241:60 *636:C1 1.61249e-06
74 *241:60 *278:33 1.66988e-05
75 *241:60 *284:28 8.21012e-06
76 *241:64 *633:A 2.0679e-05
77 *241:64 *278:33 5.48932e-05
78 *417:A2 *241:22 7.2187e-06
79 *504:B1 *241:22 6.82202e-07
80 *506:A *241:22 6.37281e-06
81 *506:B1 *241:22 1.65435e-05
82 *506:B2 *241:22 6.56185e-06
83 *509:C1 *241:22 1.98671e-05
84 *510:A1 *241:22 8.26038e-06
85 *510:A2 *241:22 1.37673e-05
86 *549:A *568:S 3.33776e-05
87 *549:A *241:10 1.01606e-05
88 *549:B1 *568:S 0
89 *576:A *663:A 2.39679e-06
90 *593:A2 *241:22 7.72792e-06
91 *594:B2 *241:22 7.72792e-06
92 *622:A1 *619:A2 6.31548e-06
93 *622:A1 *241:58 1.45806e-05
94 *622:A1 *241:60 4.28558e-05
95 *631:A1 *634:A1 7.35445e-06
96 *631:A1 *635:A1 3.19164e-07
97 *663:B1 *663:A 2.39679e-06
98 *1:85 *241:10 7.09711e-06
99 *44:20 *241:22 2.75346e-06
100 *44:20 *241:31 5.82556e-05
101 *44:35 *585:A 1.68643e-06
102 *44:35 *241:31 1.68643e-06
103 *44:35 *241:54 5.26538e-05
104 *44:35 *241:58 4.24402e-05
105 *109:44 *568:S 0.000125274
106 *109:44 *241:10 9.00974e-05
107 *141:61 *241:58 8.88396e-05
108 *141:79 *585:A 4.88119e-05
109 *141:79 *241:33 0.000101586
110 *141:79 *241:39 9.21631e-05
111 *164:14 *241:39 5.47949e-06
112 *164:14 *241:54 1.39211e-05
113 *190:49 *241:54 0
114 *190:49 *241:58 0
115 *220:41 *241:22 1.13786e-05
116 *220:47 *568:S 7.0367e-06
117 *228:28 *241:10 3.69615e-06
118 *228:28 *241:22 2.55492e-05
*RES
1 *566:ZN *241:10 15.75 
2 *241:10 *241:22 35.2857 
3 *241:22 *582:A2 5 
4 *241:22 *241:31 11.25 
5 *241:31 *241:33 5.67857 
6 *241:33 *241:39 14.25 
7 *241:39 *661:A1 5 
8 *241:39 *241:54 28.6429 
9 *241:54 *241:58 20.75 
10 *241:58 *241:60 3.75 
11 *241:60 *241:64 7.96429 
12 *241:64 *634:A1 10.25 
13 *241:64 *635:A1 5.75 
14 *241:60 *622:A2 10.75 
15 *241:58 *619:A2 21.4871 
16 *241:54 *597:A 5.75 
17 *241:33 *663:A 10.75 
18 *241:31 *585:A 13.7143 
19 *241:10 *568:S 24.7857 
*END

*D_NET *243 0.000606411
*CONN
*I *572:A2 I *D AOI22_X1
*I *570:Z O *D XOR2_X1
*CAP
1 *572:A2 8.02587e-05
2 *570:Z 8.02587e-05
3 *572:A2 *424:A 1.08445e-05
4 *572:A2 *500:A 0
5 *572:A2 *571:A1 2.39679e-06
6 *572:A2 *360:195 0.000104338
7 *572:A2 *360:206 3.76506e-05
8 *572:A2 *360:223 3.67001e-05
9 *498:A1 *572:A2 0.000204428
10 *500:B2 *572:A2 3.96215e-05
11 *1:59 *572:A2 9.9131e-06
*RES
1 *570:Z *572:A2 35.8572 
*END

*D_NET *244 6.33663e-05
*CONN
*I *572:B1 I *D AOI22_X1
*I *571:ZN O *D OR2_X1
*CAP
1 *572:B1 2.3504e-05
2 *571:ZN 2.3504e-05
3 *572:B1 *424:A 1.39615e-05
4 *572:B2 *572:B1 2.39679e-06
*RES
1 *571:ZN *572:B1 12.8571 
*END

*D_NET *245 0.00143337
*CONN
*I *594:C2 I *D OAI221_X2
*I *573:A2 I *D NOR2_X1
*I *572:ZN O *D AOI22_X1
*CAP
1 *594:C2 1.73693e-05
2 *573:A2 0
3 *572:ZN 0.000429831
4 *245:16 0.0004472
5 *594:C2 *573:A1 2.39679e-06
6 *594:C2 *594:C1 2.39679e-06
7 *245:16 *571:A1 2.17261e-06
8 *245:16 *264:14 0.000332197
9 *245:16 *299:76 0
10 *245:16 *342:18 1.41915e-05
11 *498:A1 *245:16 2.23512e-07
12 *124:21 *594:C2 5.54328e-05
13 *124:21 *245:16 1.79861e-05
14 *157:16 *245:16 4.28023e-05
15 *182:23 *594:C2 5.1189e-05
16 *182:23 *245:16 1.79861e-05
*RES
1 *572:ZN *245:16 37.9829 
2 *245:16 *573:A2 10 
3 *245:16 *594:C2 13.7143 
*END

*D_NET *246 0.000100964
*CONN
*I *575:A1 I *D NOR2_X1
*I *573:ZN O *D NOR2_X1
*CAP
1 *575:A1 2.62396e-05
2 *573:ZN 2.62396e-05
3 *575:A1 *575:A2 4.78054e-06
4 *509:B1 *575:A1 3.89107e-05
5 *509:B2 *575:A1 4.79372e-06
*RES
1 *573:ZN *575:A1 13.75 
*END

*D_NET *247 0.000113292
*CONN
*I *575:A2 I *D NOR2_X1
*I *574:ZN O *D AND2_X1
*CAP
1 *575:A2 2.6597e-05
2 *574:ZN 2.6597e-05
3 *509:B1 *575:A2 1.8225e-06
4 *509:B2 *575:A2 1.25215e-05
5 *575:A1 *575:A2 4.78054e-06
6 *220:31 *575:A2 4.09741e-05
*RES
1 *574:ZN *575:A2 23.5357 
*END

*D_NET *248 0.000844101
*CONN
*I *578:A I *D INV_X1
*I *639:A4 I *D NAND4_X1
*I *577:ZN O *D NAND2_X1
*CAP
1 *578:A 1.33515e-05
2 *639:A4 3.44769e-05
3 *577:ZN 0.000104238
4 *248:8 0.000152066
5 *578:A *298:12 4.23397e-05
6 *639:A4 *398:A 2.0281e-05
7 *639:A4 *448:A 1.56471e-05
8 *248:8 *521:A 4.45275e-05
9 *248:8 *298:12 0.000371818
10 *248:8 *360:10 3.62959e-05
11 dest_out[0] *248:8 3.70328e-06
12 *700:CK *578:A 5.15866e-06
13 *99:53 *248:8 1.97811e-07
*RES
1 *577:ZN *248:8 29.9286 
2 *248:8 *639:A4 14.25 
3 *248:8 *578:A 12.2857 
*END

*D_NET *249 9.50518e-05
*CONN
*I *583:B I *D XNOR2_X1
*I *582:ZN O *D NOR2_X1
*CAP
1 *583:B 1.73504e-05
2 *582:ZN 1.73504e-05
3 *583:B *439:A1 4.24381e-05
4 *583:B *583:A 7.72537e-06
5 *583:B *335:12 9.57492e-07
6 *44:16 *583:B 9.22998e-06
*RES
1 *582:ZN *583:B 23.0357 
*END

*D_NET *250 0.000121534
*CONN
*I *585:B1 I *D AOI21_X1
*I *584:ZN O *D NOR2_X1
*CAP
1 *585:B1 1.3691e-05
2 *584:ZN 1.3691e-05
3 *585:B1 *584:A2 1.68643e-06
4 *585:B1 *664:B 4.29819e-05
5 *585:A *585:B1 2.39679e-06
6 *44:20 *585:B1 2.24822e-06
7 *44:35 *585:B1 2.39679e-06
8 *141:79 *585:B1 4.24423e-05
*RES
1 *584:ZN *585:B1 23.0357 
*END

*D_NET *251 0.000102964
*CONN
*I *586:B I *D XNOR2_X1
*I *585:ZN O *D AOI21_X1
*CAP
1 *586:B 3.03838e-05
2 *585:ZN 3.03838e-05
3 *503:A *586:B 0
4 *44:35 *586:B 4.21967e-05
*RES
1 *585:ZN *586:B 14 
*END

*D_NET *253 0.000225056
*CONN
*I *590:A2 I *D NOR2_X1
*I *589:ZN O *D AOI22_X1
*CAP
1 *590:A2 3.89899e-05
2 *589:ZN 3.89899e-05
3 *590:A2 *627:A2 2.29071e-05
4 *590:A2 *278:16 6.63045e-05
5 *590:A2 *359:166 2.72417e-06
6 *590:A2 *373:43 6.54588e-06
7 *590:A2 *383:41 1.96924e-05
8 *590:A2 *383:54 6.54588e-06
9 *138:40 *590:A2 2.23558e-05
*RES
1 *589:ZN *590:A2 26.6429 
*END

*D_NET *254 0.000116319
*CONN
*I *591:A I *D AOI221_X1
*I *590:ZN O *D NOR2_X1
*CAP
1 *591:A 3.76204e-05
2 *590:ZN 3.76204e-05
3 *591:A *591:B2 1.39319e-05
4 *591:A *591:C2 1.37673e-05
5 *591:A *627:A2 2.49523e-06
6 *591:A *373:37 1.6095e-06
7 *591:A *383:65 4.12459e-06
8 *591:B1 *591:A 2.75346e-06
9 *138:51 *591:A 2.39679e-06
*RES
1 *590:ZN *591:A 14.75 
*END

*D_NET *255 0.000218959
*CONN
*I *594:A I *D OAI221_X2
*I *593:ZN O *D NAND2_X1
*CAP
1 *594:A 4.67272e-05
2 *593:ZN 4.67272e-05
3 *594:A *256:12 2.59952e-06
4 *595:C2 *594:A 6.517e-05
5 *220:41 *594:A 3.33433e-05
6 *228:28 *594:A 2.52965e-06
7 *241:22 *594:A 2.18617e-05
*RES
1 *593:ZN *594:A 26.6429 
*END

*D_NET *256 0.00188564
*CONN
*I *596:A1 I *D NOR2_X2
*I *625:A1 I *D OR2_X4
*I *630:C1 I *D OAI211_X2
*I *660:A2 I *D NOR3_X1
*I *594:ZN O *D OAI221_X2
*CAP
1 *596:A1 0
2 *625:A1 3.70491e-05
3 *630:C1 1.72974e-05
4 *660:A2 0
5 *594:ZN 0.00028602
6 *256:25 6.63524e-05
7 *256:23 0.00019533
8 *256:12 0.000469344
9 *625:A1 *620:A1 0
10 *625:A1 *625:A2 1.68643e-06
11 *625:A1 *630:A 0
12 *625:A1 *630:B 0
13 *625:A1 *636:C2 3.01128e-05
14 *625:A1 *258:6 7.72792e-06
15 *630:C1 *630:B 9.62051e-07
16 *256:12 *586:A 0
17 *256:12 *660:A1 2.6099e-05
18 *256:12 *660:A3 0
19 *256:12 *661:A2 1.88334e-06
20 *256:12 *663:B2 0
21 *256:12 *368:38 2.75402e-05
22 *256:23 *597:B1 2.2921e-05
23 *256:23 *660:A1 1.32348e-05
24 *256:23 *660:A3 2.75346e-06
25 *256:23 *270:12 0
26 *475:B1 *625:A1 7.19036e-06
27 *475:B1 *630:C1 2.44242e-05
28 *475:B1 *256:23 3.07768e-05
29 *475:B1 *256:25 4.24423e-05
30 *509:A *256:12 1.38361e-05
31 *509:B1 *256:12 2.21439e-05
32 *509:C1 *256:12 8.69546e-05
33 *510:A2 *256:12 4.6837e-06
34 *576:A *256:12 4.9678e-06
35 *593:A2 *256:12 2.25089e-06
36 *594:A *256:12 2.59952e-06
37 *663:A *256:12 4.32144e-07
38 *674:A *256:12 1.67775e-05
39 *30:18 *256:12 4.6613e-07
40 *30:22 *256:12 1.27894e-05
41 *44:35 *256:12 0
42 *44:35 *256:23 0.000337363
43 *141:61 *630:C1 8.43215e-07
44 *164:14 *256:23 0
45 *220:41 *256:12 1.12491e-05
46 *241:22 *256:12 5.19545e-06
47 *241:31 *256:12 0
48 *241:33 *256:12 0
49 *241:39 *256:12 0
50 *241:54 *256:23 6.707e-06
51 *241:58 *630:C1 1.045e-05
52 *241:58 *256:23 2.26949e-05
53 *241:58 *256:25 1.20923e-05
*RES
1 *594:ZN *256:12 48.0714 
2 *256:12 *660:A2 5 
3 *256:12 *256:23 32.5357 
4 *256:23 *256:25 2.28572 
5 *256:25 *630:C1 12.3571 
6 *256:25 *625:A1 14.25 
7 *256:23 *596:A1 10 
*END

*D_NET *257 0.00114628
*CONN
*I *625:A2 I *D OR2_X4
*I *596:A2 I *D NOR2_X2
*I *630:C2 I *D OAI211_X2
*I *595:ZN O *D OAI211_X2
*CAP
1 *625:A2 5.0431e-05
2 *596:A2 0
3 *630:C2 1.26124e-05
4 *595:ZN 0.000415364
5 *257:33 6.12483e-05
6 *257:16 0.000438794
7 *625:A2 *598:A 0
8 *625:A2 *636:C2 3.23338e-05
9 *625:A2 *258:6 7.19036e-06
10 *466:B1 *257:16 6.06253e-07
11 *475:B1 *625:A2 8.21545e-06
12 *475:B1 *630:C2 7.72537e-06
13 *601:B1 *257:16 1.66135e-07
14 *625:A1 *625:A2 1.68643e-06
15 *15:14 *257:16 1.61768e-05
16 *109:18 *257:16 0
17 *141:31 *257:16 3.47077e-05
18 *141:48 *257:16 2.63121e-05
19 *190:45 *257:16 0
20 *190:49 *630:C2 0
21 *241:58 *630:C2 2.19179e-05
22 *241:58 *257:33 1.07931e-05
*RES
1 *595:ZN *257:16 34.9357 
2 *257:16 *630:C2 11.9643 
3 *257:16 *257:33 6.39286 
4 *257:33 *596:A2 5 
5 *257:33 *625:A2 10.75 
*END

*D_NET *258 0.00105075
*CONN
*I *636:C2 I *D OAI221_X2
*I *597:B1 I *D AOI21_X1
*I *596:ZN O *D NOR2_X2
*CAP
1 *636:C2 9.2682e-05
2 *597:B1 6.10833e-05
3 *596:ZN 4.62305e-06
4 *258:6 0.000158388
5 *597:B1 *598:B 1.74934e-05
6 *597:B1 *679:A 5.81102e-06
7 *597:B1 *270:12 0
8 *597:B1 *285:8 6.44191e-06
9 *636:C2 *621:A2 0.000117243
10 *636:C2 *636:B2 3.02296e-05
11 *636:C2 *270:12 7.63866e-05
12 *636:C2 *285:8 0.000322791
13 *475:B1 *597:B1 5.48932e-05
14 *597:A *597:B1 2.39679e-06
15 *625:A1 *636:C2 3.01128e-05
16 *625:A1 *258:6 7.72792e-06
17 *625:A2 *636:C2 3.23338e-05
18 *625:A2 *258:6 7.19036e-06
19 *256:23 *597:B1 2.2921e-05
*RES
1 *596:ZN *258:6 5.75 
2 *258:6 *597:B1 23.1071 
3 *258:6 *636:C2 35.4643 
*END

*D_NET *259 0.000185527
*CONN
*I *598:B I *D XNOR2_X1
*I *597:ZN O *D AOI21_X1
*CAP
1 *598:B 6.50101e-05
2 *597:ZN 6.50101e-05
3 *598:B *598:A 1.90952e-05
4 *598:B *679:A 1.4983e-05
5 *475:B1 *598:B 0
6 *597:A *598:B 8.43215e-07
7 *597:B1 *598:B 1.74934e-05
8 *241:54 *598:B 3.09143e-06
*RES
1 *597:ZN *598:B 17.9286 
*END

*D_NET *260 0.000171725
*CONN
*I *601:B2 I *D AOI22_X1
*I *600:Z O *D MUX2_X1
*CAP
1 *601:B2 4.87718e-05
2 *600:Z 4.87718e-05
3 *601:B2 *600:S 1.01993e-05
4 *601:B2 *603:A 2.37137e-05
5 *601:B2 *371:28 3.02351e-05
6 *466:B1 *601:B2 0
7 *601:B1 *601:B2 7.72537e-06
8 *236:8 *601:B2 2.30746e-06
*RES
1 *600:Z *601:B2 26.5714 
*END

*D_NET *261 0.00011998
*CONN
*I *602:A I *D OAI21_X1
*I *601:ZN O *D AOI22_X1
*CAP
1 *602:A 2.56051e-05
2 *601:ZN 2.56051e-05
3 *602:A *600:S 5.38515e-05
4 *602:A *603:A 7.19036e-06
5 *602:B1 *602:A 7.72792e-06
*RES
1 *601:ZN *602:A 23.7143 
*END

*D_NET *262 0.000623076
*CONN
*I *603:A I *D AOI21_X1
*I *602:ZN O *D OAI21_X1
*CAP
1 *603:A 0.000214183
2 *602:ZN 0.000214183
3 *603:A *466:A1 1.87369e-06
4 *603:A *552:A3 0
5 *603:A *338:44 1.8031e-05
6 *603:A *371:28 3.35654e-06
7 *603:A *372:26 1.1209e-05
8 *603:A *373:22 0
9 *466:B1 *603:A 0
10 *466:B2 *603:A 0
11 *470:A2 *603:A 0
12 *601:A1 *603:A 3.28455e-06
13 *601:A2 *603:A 0
14 *601:B2 *603:A 2.37137e-05
15 *602:A *603:A 7.19036e-06
16 *602:B1 *603:A 4.75359e-05
17 *602:B2 *603:A 1.9052e-05
18 *603:B1 *603:A 5.44494e-05
19 *666:B *603:A 5.01358e-06
20 *709:RN *603:A 0
*RES
1 *602:ZN *603:A 36.2143 
*END

*D_NET *263 0.000686446
*CONN
*I *643:A1 I *D AND2_X1
*I *638:A1 I *D NAND2_X2
*I *603:ZN O *D AOI21_X1
*CAP
1 *643:A1 6.54631e-06
2 *638:A1 2.8463e-05
3 *603:ZN 8.90696e-05
4 *263:8 0.000124079
5 *638:A1 *638:A2 2.39679e-06
6 *638:A1 *644:A 4.81464e-06
7 *638:A1 *659:A 4.6837e-06
8 *638:A1 *346:16 1.21006e-05
9 *643:A1 *643:A2 1.26998e-05
10 *263:8 *643:A2 5.86754e-06
11 *263:8 *644:A 1.4293e-06
12 *263:8 *652:A 3.24081e-05
13 *263:8 *652:S 5.39659e-06
14 *263:8 *338:22 4.26902e-05
15 *263:8 *338:44 0.000233495
16 *263:8 *346:16 6.30637e-05
17 *263:8 *372:55 1.72426e-05
*RES
1 *603:ZN *263:8 27.8929 
2 *263:8 *638:A1 13.5357 
3 *263:8 *643:A1 11.25 
*END

*D_NET *264 0.0032464
*CONN
*I *660:A3 I *D NOR3_X1
*I *605:A I *D INV_X1
*I *632:A3 I *D OR4_X2
*I *629:A3 I *D NOR4_X2
*I *604:ZN O *D NAND3_X2
*CAP
1 *660:A3 1.35985e-05
2 *605:A 4.37058e-05
3 *632:A3 4.70123e-05
4 *629:A3 0
5 *604:ZN 0.000549619
6 *264:24 0.000255557
7 *264:16 0.000312637
8 *264:14 0.000623605
9 *605:A *662:A 1.75794e-05
10 *605:A *669:B 0
11 *605:A *679:A 0
12 *605:A *683:A 0
13 *632:A3 *628:A2 9.62051e-07
14 *632:A3 *628:A3 2.16072e-07
15 *632:A3 *632:A1 1.616e-05
16 *632:A3 *632:A2 5.43035e-06
17 *632:A3 *632:A4 7.72537e-06
18 *632:A3 *633:B1 2.11815e-06
19 *632:A3 *338:22 7.16188e-07
20 *660:A3 *661:A2 7.57858e-06
21 *264:14 *477:A2 8.80137e-06
22 *264:14 *648:B 0
23 *264:14 *299:76 2.11986e-05
24 *264:14 *348:14 0
25 *264:16 *661:A2 5.95435e-05
26 *264:16 *662:A 2.08098e-06
27 *264:16 *662:B 1.64094e-05
28 *264:16 *663:B2 1.13418e-05
29 *264:24 *629:A4 1.20229e-05
30 *264:24 *633:A 0
31 *264:24 *652:A 9.98645e-06
32 *264:24 *662:A 1.87741e-05
33 *264:24 *667:B 4.26902e-05
34 *264:24 *278:16 7.07714e-06
35 *264:24 *281:29 1.53357e-05
36 *264:24 *337:10 1.02042e-05
37 *264:24 *338:55 0.000232983
38 *264:24 *346:16 0
39 *264:24 *372:55 0
40 *101:107 *264:14 7.25923e-06
41 *157:16 *264:14 1.89296e-05
42 *190:49 *264:24 0.000510477
43 *241:39 *660:A3 1.40196e-06
44 *241:54 *660:A3 7.16188e-07
45 *241:54 *264:16 0
46 *241:54 *264:24 0
47 *245:16 *264:14 0.000332197
48 *256:12 *660:A3 0
49 *256:23 *660:A3 2.75346e-06
*RES
1 *604:ZN *264:14 41.5171 
2 *264:14 *264:16 7.96429 
3 *264:16 *264:24 42.2143 
4 *264:24 *629:A3 5 
5 *264:24 *632:A3 10.75 
6 *264:16 *605:A 14.25 
7 *264:14 *660:A3 11.4286 
*END

*D_NET *265 0.000835477
*CONN
*I *663:B2 I *D AOI21_X1
*I *624:A2 I *D AOI22_X1
*I *605:ZN O *D INV_X1
*CAP
1 *663:B2 7.62587e-05
2 *624:A2 0.000160756
3 *605:ZN 0
4 *265:6 0.000237014
5 *624:A2 *662:A 3.76493e-05
6 *624:A2 *337:10 3.43627e-05
7 *624:A2 *338:55 4.3537e-05
8 *624:A2 *372:55 1.32414e-05
9 *663:B2 *661:A2 1.57017e-05
10 *663:B2 *662:A 1.88334e-06
11 *470:A2 *624:A2 8.25592e-06
12 *475:A *624:A2 8.07518e-05
13 *624:A1 *624:A2 2.73593e-05
14 *663:A *663:B2 4.32144e-07
15 *663:B1 *663:B2 8.43215e-07
16 *141:48 *624:A2 2.6375e-07
17 *141:61 *624:A2 0
18 *141:79 *624:A2 4.43461e-05
19 *141:79 *663:B2 2.11573e-05
20 *164:14 *663:B2 0
21 *241:39 *663:B2 2.03217e-05
22 *256:12 *663:B2 0
23 *264:16 *663:B2 1.13418e-05
*RES
1 *605:ZN *265:6 10 
2 *265:6 *624:A2 34.0357 
3 *265:6 *663:B2 20.1429 
*END

*D_NET *266 0.000123813
*CONN
*I *607:B I *D OAI211_X2
*I *606:ZN O *D NOR3_X1
*CAP
1 *607:B 5.1175e-05
2 *606:ZN 5.1175e-05
3 *460:A2 *607:B 0
4 *607:C1 *607:B 6.38328e-07
5 *52:10 *607:B 2.08251e-05
6 *161:12 *607:B 0
*RES
1 *606:ZN *607:B 15.6786 
*END

*D_NET *267 0.00074514
*CONN
*I *611:A1 I *D AND2_X2
*I *621:A1 I *D NAND2_X2
*I *607:ZN O *D OAI211_X2
*CAP
1 *611:A1 1.73071e-05
2 *621:A1 5.21041e-05
3 *607:ZN 0.000208906
4 *267:8 0.000278317
5 *611:A1 *611:A2 7.19036e-06
6 *611:A1 *620:A1 2.39679e-06
7 *611:A1 *637:A1 0
8 *621:A1 *621:A2 3.53389e-05
9 *621:A1 *637:A1 1.74934e-05
10 *621:A1 *281:14 4.9678e-06
11 *267:8 *610:A2 0
12 *267:8 *621:A2 4.12796e-06
13 *267:8 *270:12 8.86258e-05
14 *473:B1 *267:8 2.83649e-05
15 *606:A3 *267:8 0
16 *609:A2 *267:8 0
*RES
1 *607:ZN *267:8 36.0357 
2 *267:8 *621:A1 16.75 
3 *267:8 *611:A1 11.75 
*END

*D_NET *268 0.000203701
*CONN
*I *610:A1 I *D NOR2_X1
*I *608:ZN O *D NOR2_X1
*CAP
1 *610:A1 3.93415e-05
2 *608:ZN 3.93415e-05
3 *610:A1 *610:A2 3.12381e-06
4 *474:B *610:A1 0.000106622
5 *608:A2 *610:A1 1.52724e-05
*RES
1 *608:ZN *610:A1 26.4286 
*END

*D_NET *269 0.000164018
*CONN
*I *610:A2 I *D NOR2_X1
*I *609:ZN O *D NOR3_X1
*CAP
1 *610:A2 4.89054e-05
2 *609:ZN 4.89054e-05
3 *610:A2 *270:12 3.76624e-05
4 *474:B *610:A2 0
5 *606:A3 *610:A2 5.64879e-06
6 *608:A2 *610:A2 1.72426e-05
7 *610:A1 *610:A2 3.12381e-06
8 *41:21 *610:A2 2.52965e-06
9 *267:8 *610:A2 0
*RES
1 *609:ZN *610:A2 26.0357 
*END

*D_NET *270 0.000881834
*CONN
*I *611:A2 I *D AND2_X2
*I *621:A2 I *D NAND2_X2
*I *610:ZN O *D NOR2_X1
*CAP
1 *611:A2 7.17197e-06
2 *621:A2 3.1656e-05
3 *610:ZN 0.00018114
4 *270:12 0.000219968
5 *621:A2 *637:A1 0
6 *270:12 *679:A 5.4899e-05
7 *270:12 *285:8 1.40436e-05
8 *475:B1 *270:12 0
9 *597:B1 *270:12 0
10 *608:A1 *270:12 2.23871e-06
11 *608:A2 *270:12 0
12 *609:A2 *270:12 1.27666e-06
13 *610:A2 *270:12 3.76624e-05
14 *611:A1 *611:A2 7.19036e-06
15 *621:A1 *621:A2 3.53389e-05
16 *636:C2 *621:A2 0.000117243
17 *636:C2 *270:12 7.63866e-05
18 *41:21 *270:12 2.86475e-06
19 *42:6 *270:12 0
20 *53:12 *270:12 0
21 *256:23 *270:12 0
22 *267:8 *621:A2 4.12796e-06
23 *267:8 *270:12 8.86258e-05
*RES
1 *610:ZN *270:12 34.8214 
2 *270:12 *621:A2 16.3571 
3 *270:12 *611:A2 10.75 
*END

*D_NET *271 0.000190409
*CONN
*I *620:A1 I *D NAND2_X1
*I *630:A I *D OAI211_X2
*I *611:ZN O *D AND2_X2
*CAP
1 *620:A1 1.89425e-05
2 *630:A 2.99808e-05
3 *611:ZN 2.72519e-05
4 *271:6 7.61752e-05
5 *620:A1 *620:A2 4.32144e-07
6 *620:A1 *624:B1 1.87369e-06
7 *630:A *624:B1 1.51496e-05
8 *630:A *630:B 1.82068e-05
9 *611:A1 *620:A1 2.39679e-06
10 *625:A1 *620:A1 0
11 *625:A1 *630:A 0
*RES
1 *611:ZN *271:6 7.96429 
2 *271:6 *630:A 8.75 
3 *271:6 *620:A1 7.17857 
*END

*D_NET *272 0.000657654
*CONN
*I *627:A2 I *D NAND3_X1
*I *613:A2 I *D NAND2_X1
*I *612:ZN O *D NAND3_X1
*CAP
1 *627:A2 0.000118945
2 *613:A2 0
3 *612:ZN 3.62254e-05
4 *272:16 0.000155171
5 *627:A2 *591:B2 3.83783e-05
6 *627:A2 *618:A 7.19036e-06
7 *627:A2 *618:C1 1.38865e-05
8 *627:A2 *626:A2 7.72792e-06
9 *627:A2 *627:A3 2.75346e-06
10 *627:A2 *359:166 5.19992e-05
11 *627:A2 *383:41 1.67442e-05
12 *272:16 *612:A1 8.43215e-07
13 *272:16 *612:A2 6.42262e-07
14 *272:16 *627:A3 4.49583e-06
15 *272:16 *274:12 4.16464e-05
16 *272:16 *373:47 3.15028e-06
17 *272:16 *383:31 3.38442e-05
18 *560:B2 *627:A2 2.75346e-06
19 *563:B2 *627:A2 4.87096e-06
20 *590:A2 *627:A2 2.29071e-05
21 *591:A *627:A2 2.49523e-06
22 *591:B1 *627:A2 3.65322e-06
23 *627:A1 *627:A2 6.76149e-05
24 *698:D *272:16 0
25 *1:157 *627:A2 2.16072e-07
26 *1:157 *272:16 2.83077e-06
27 *111:29 *627:A2 8.43215e-07
28 *111:29 *272:16 8.87679e-06
29 *138:40 *627:A2 4.86437e-06
30 *138:40 *272:16 4.32144e-07
31 *138:51 *627:A2 1.65202e-06
*RES
1 *612:ZN *272:16 20.2143 
2 *272:16 *613:A2 5 
3 *272:16 *627:A2 33.5 
*END

*D_NET *273 0.000148194
*CONN
*I *618:A I *D AOI221_X1
*I *613:ZN O *D NAND2_X1
*CAP
1 *618:A 4.37315e-05
2 *613:ZN 4.37315e-05
3 *618:A *618:B1 1.80284e-05
4 *618:A *618:B2 1.99804e-06
5 *618:A *618:C2 2.39679e-06
6 *618:A *626:A2 5.05756e-06
7 *618:A *383:31 6.38328e-07
8 *627:A1 *618:A 2.54212e-05
9 *627:A2 *618:A 7.19036e-06
*RES
1 *613:ZN *618:A 15.4286 
*END

*D_NET *274 0.000534252
*CONN
*I *618:B1 I *D AOI221_X1
*I *626:B1 I *D AOI22_X1
*I *614:ZN O *D NAND2_X1
*CAP
1 *618:B1 4.63583e-05
2 *626:B1 0
3 *614:ZN 7.54393e-05
4 *274:12 0.000121798
5 *618:B1 *616:A2 8.22382e-07
6 *618:B1 *618:B2 1.80284e-05
7 *618:B1 *618:C1 1.52083e-06
8 *618:B1 *626:B2 1.50966e-05
9 *618:B1 *277:12 2.15368e-05
10 *274:12 *612:A1 2.94435e-05
11 *274:12 *612:A2 4.80378e-06
12 *274:12 *626:B2 2.39679e-06
13 *274:12 *627:A3 1.02238e-05
14 *274:12 *360:87 1.27467e-05
15 *274:12 *373:43 1.90574e-06
16 *274:12 *373:47 4.46014e-06
17 *522:B2 *274:12 5.20238e-07
18 *561:A1 *618:B1 2.4406e-05
19 *617:B2 *618:B1 1.66988e-05
20 *618:A *618:B1 1.80284e-05
21 *1:157 *618:B1 3.08967e-05
22 *1:157 *274:12 1.82068e-05
23 *102:132 *274:12 0
24 *111:29 *274:12 1.58752e-05
25 *138:23 *274:12 1.39294e-06
26 *272:16 *274:12 4.16464e-05
*RES
1 *614:ZN *274:12 25.1429 
2 *274:12 *626:B1 5 
3 *274:12 *618:B1 22.2857 
*END

*D_NET *275 0.000254006
*CONN
*I *618:B2 I *D AOI221_X1
*I *626:B2 I *D AOI22_X1
*I *615:ZN O *D INV_X1
*CAP
1 *618:B2 3.6736e-05
2 *626:B2 1.1805e-05
3 *615:ZN 5.55492e-06
4 *275:8 5.40959e-05
5 *618:B2 *617:A 2.75346e-06
6 *618:B2 *618:C2 1.30597e-05
7 *618:B2 *626:A2 6.54288e-06
8 *618:B2 *277:12 4.11048e-05
9 *618:B2 *359:166 1.88334e-06
10 *626:B2 *616:A2 7.21602e-06
11 *275:8 *618:C2 6.32202e-06
12 *275:8 *277:12 4.49583e-06
13 *617:B2 *618:B2 1.60038e-06
14 *617:B2 *275:8 2.72171e-06
15 *618:A *618:B2 1.99804e-06
16 *618:B1 *618:B2 1.80284e-05
17 *618:B1 *626:B2 1.50966e-05
18 *1:157 *618:B2 2.05937e-05
19 *274:12 *626:B2 2.39679e-06
*RES
1 *615:ZN *275:8 10.9286 
2 *275:8 *626:B2 11.75 
3 *275:8 *618:B2 15.5357 
*END

*D_NET *276 0.00012794
*CONN
*I *617:A I *D OAI21_X1
*I *616:ZN O *D NAND2_X1
*CAP
1 *617:A 5.36902e-05
2 *616:ZN 5.36902e-05
3 *617:A *618:C2 3.19164e-07
4 *563:B2 *617:A 4.9678e-06
5 *617:B1 *617:A 1.25189e-05
6 *618:B2 *617:A 2.75346e-06
*RES
1 *616:ZN *617:A 15.8929 
*END

*D_NET *277 0.00035466
*CONN
*I *618:C1 I *D AOI221_X1
*I *626:A2 I *D AOI22_X1
*I *617:ZN O *D OAI21_X1
*CAP
1 *618:C1 5.14512e-05
2 *626:A2 1.28972e-05
3 *617:ZN 3.41055e-05
4 *277:12 9.8454e-05
5 *618:C1 *278:16 1.88334e-06
6 *618:C1 *359:166 6.59614e-07
7 *618:C1 *383:41 6.70546e-08
8 *277:12 *616:A2 2.41432e-06
9 *277:12 *618:C2 4.69702e-07
10 *277:12 *359:166 2.3767e-06
11 *561:A1 *618:C1 2.97011e-05
12 *617:B2 *277:12 5.11849e-06
13 *618:A *626:A2 5.05756e-06
14 *618:B1 *618:C1 1.52083e-06
15 *618:B1 *277:12 2.15368e-05
16 *618:B2 *626:A2 6.54288e-06
17 *618:B2 *277:12 4.11048e-05
18 *627:A1 *618:C1 7.19036e-06
19 *627:A2 *618:C1 1.38865e-05
20 *627:A2 *626:A2 7.72792e-06
21 *1:157 *626:A2 4.12459e-06
22 *1:157 *277:12 1.87369e-06
23 *275:8 *277:12 4.49583e-06
*RES
1 *617:ZN *277:12 14.9643 
2 *277:12 *626:A2 11.75 
3 *277:12 *618:C1 16.2143 
*END

*D_NET *278 0.00203734
*CONN
*I *619:A3 I *D NOR3_X1
*I *635:A2 I *D NAND2_X1
*I *631:A2 I *D NAND2_X1
*I *623:A2 I *D NAND3_X1
*I *618:ZN O *D AOI221_X1
*CAP
1 *619:A3 3.57672e-05
2 *635:A2 0
3 *631:A2 1.77369e-05
4 *623:A2 0
5 *618:ZN 0.000538086
6 *278:33 5.01092e-05
7 *278:27 0.00010934
8 *278:20 5.46214e-05
9 *278:16 0.000551507
10 *619:A3 *620:A2 2.16072e-07
11 *619:A3 *624:B1 3.19164e-07
12 *619:A3 *636:A 4.12459e-06
13 *619:A3 *636:C1 4.01094e-05
14 *619:A3 *281:14 2.14281e-05
15 *619:A3 *284:28 7.66691e-06
16 *619:A3 *285:8 4.57782e-06
17 *631:A2 *632:A4 6.99525e-06
18 *631:A2 *633:A 8.1183e-06
19 *631:A2 *636:C1 1.62377e-05
20 *631:A2 *285:8 0
21 *278:16 *627:A3 0
22 *278:16 *652:A 8.04655e-07
23 *278:16 *359:166 9.02122e-06
24 *278:16 *372:26 0.000161767
25 *278:16 *383:41 3.32587e-06
26 *278:20 *623:A1 2.39679e-06
27 *278:20 *623:A3 2.39679e-06
28 *278:20 *634:A3 0
29 *278:27 *623:A1 7.19036e-06
30 *278:27 *623:A3 3.54439e-05
31 *278:27 *636:A 7.40596e-06
32 *278:27 *281:14 3.41475e-05
33 *278:33 *633:A 4.62745e-06
34 *278:33 *636:C1 3.40442e-05
35 *561:A1 *278:16 7.85295e-06
36 *590:A2 *278:16 6.63045e-05
37 *614:A2 *278:16 0.000100574
38 *618:C1 *278:16 1.88334e-06
39 *619:A2 *619:A3 5.33113e-06
40 *622:A2 *278:27 7.19036e-06
41 *141:31 *278:16 0
42 *141:48 *278:16 0
43 *241:60 *278:33 1.66988e-05
44 *241:64 *278:33 5.48932e-05
45 *264:24 *278:16 7.07714e-06
*RES
1 *618:ZN *278:16 45.8629 
2 *278:16 *278:20 6.25 
3 *278:20 *623:A2 5 
4 *278:20 *278:27 6.25 
5 *278:27 *278:33 10.75 
6 *278:33 *631:A2 12.9643 
7 *278:33 *635:A2 10 
8 *278:27 *619:A3 20.0357 
*END

*D_NET *279 0.00020747
*CONN
*I *620:A2 I *D NAND2_X1
*I *630:B I *D OAI211_X2
*I *619:ZN O *D NOR3_X1
*CAP
1 *620:A2 2.62393e-05
2 *630:B 3.78734e-05
3 *619:ZN 0
4 *279:4 6.41128e-05
5 *620:A2 *624:B1 2.75402e-05
6 *620:A2 *637:A1 9.47198e-06
7 *620:A2 *281:14 0
8 *630:B *636:C1 4.7875e-06
9 *630:B *285:8 7.52209e-06
10 *475:B1 *630:B 0
11 *619:A3 *620:A2 2.16072e-07
12 *620:A1 *620:A2 4.32144e-07
13 *625:A1 *630:B 0
14 *630:A *630:B 1.82068e-05
15 *630:C1 *630:B 9.62051e-07
16 *141:61 *630:B 1.0106e-05
*RES
1 *619:ZN *279:4 5 
2 *279:4 *630:B 19.7143 
3 *279:4 *620:A2 8.25 
*END

*D_NET *280 0.000346764
*CONN
*I *624:B1 I *D AOI22_X1
*I *620:ZN O *D NAND2_X1
*CAP
1 *624:B1 9.71554e-05
2 *620:ZN 9.71554e-05
3 *624:B1 *624:B2 4.31185e-06
4 *624:B1 *633:A 2.89018e-05
5 *624:B1 *636:C1 4.69921e-05
6 *624:B1 *284:28 2.73644e-05
7 *619:A3 *624:B1 3.19164e-07
8 *620:A1 *624:B1 1.87369e-06
9 *620:A2 *624:B1 2.75402e-05
10 *630:A *624:B1 1.51496e-05
11 *141:61 *624:B1 0
12 *190:49 *624:B1 0
*RES
1 *620:ZN *624:B1 32.5357 
*END

*D_NET *281 0.00101028
*CONN
*I *636:B2 I *D OAI221_X2
*I *634:A2 I *D NAND3_X1
*I *632:A2 I *D OR4_X2
*I *628:A2 I *D NAND3_X1
*I *623:A1 I *D NAND3_X1
*I *621:ZN O *D NAND2_X2
*CAP
1 *636:B2 4.28029e-05
2 *634:A2 6.30469e-06
3 *632:A2 7.89682e-05
4 *628:A2 5.92904e-06
5 *623:A1 6.96162e-06
6 *621:ZN 0
7 *281:29 0.000111252
8 *281:25 6.95992e-05
9 *281:14 0.0001454
10 *281:4 0.000144302
11 *623:A1 *624:B2 2.52965e-06
12 *628:A2 *628:A3 2.75346e-06
13 *632:A2 *629:A2 0
14 *632:A2 *632:A4 3.16378e-05
15 *632:A2 *633:A 5.10087e-06
16 *632:A2 *633:B1 1.25215e-05
17 *632:A2 *285:8 0
18 *634:A2 *634:A3 2.39679e-06
19 *636:B2 *636:A 2.16072e-07
20 *636:B2 *636:B1 7.72792e-06
21 *636:B2 *637:A1 0
22 *636:B2 *637:A3 0
23 *281:14 *624:B2 4.31185e-06
24 *281:14 *636:A 4.72575e-06
25 *281:14 *636:C1 3.19164e-07
26 *281:14 *637:A1 4.05872e-06
27 *281:14 *283:8 1.13641e-05
28 *281:14 *284:28 9.08e-06
29 *281:25 *623:A3 1.23214e-06
30 *281:25 *633:A 0
31 *281:29 *629:A4 3.02372e-05
32 *281:29 *633:A 0
33 *619:A3 *281:14 2.14281e-05
34 *620:A2 *281:14 0
35 *621:A1 *281:14 4.9678e-06
36 *631:A1 *628:A2 1.39839e-06
37 *631:A1 *632:A2 7.74574e-06
38 *631:A1 *634:A2 4.32144e-07
39 *632:A3 *628:A2 9.62051e-07
40 *632:A3 *632:A2 5.43035e-06
41 *634:A1 *634:A2 7.19036e-06
42 *636:C2 *636:B2 3.02296e-05
43 *190:49 *281:25 8.7798e-05
44 *190:49 *281:29 4.18985e-05
45 *264:24 *281:29 1.53357e-05
46 *278:20 *623:A1 2.39679e-06
47 *278:27 *623:A1 7.19036e-06
48 *278:27 *281:14 3.41475e-05
*RES
1 *621:ZN *281:4 5 
2 *281:4 *281:14 13.1071 
3 *281:14 *623:A1 5.75 
4 *281:14 *281:25 10 
5 *281:25 *281:29 9.32143 
6 *281:29 *628:A2 5.75 
7 *281:29 *632:A2 24.1429 
8 *281:25 *634:A2 10.75 
9 *281:4 *636:B2 20.5714 
*END

*D_NET *282 0.000165511
*CONN
*I *623:A3 I *D NAND3_X1
*I *622:ZN O *D NOR2_X1
*CAP
1 *623:A3 3.8261e-05
2 *622:ZN 3.8261e-05
3 *623:A3 *633:A 2.94455e-05
4 *623:A3 *636:A 1.75939e-05
5 *634:A1 *623:A3 2.87703e-06
6 *278:20 *623:A3 2.39679e-06
7 *278:27 *623:A3 3.54439e-05
8 *281:25 *623:A3 1.23214e-06
*RES
1 *622:ZN *623:A3 25.3571 
*END

*D_NET *283 0.000657631
*CONN
*I *636:C1 I *D OAI221_X2
*I *624:B2 I *D AOI22_X1
*I *623:ZN O *D NAND3_X1
*CAP
1 *636:C1 0.000180949
2 *624:B2 1.34959e-05
3 *623:ZN 1.0719e-05
4 *283:8 0.000205164
5 *624:B2 *284:28 1.32323e-05
6 *636:C1 *633:A 4.16195e-06
7 *636:C1 *633:B1 7.16188e-07
8 *636:C1 *636:B1 4.80114e-06
9 *636:C1 *284:28 1.80477e-05
10 *636:C1 *285:8 7.7623e-06
11 *283:8 *284:28 6.38328e-07
12 *619:A2 *636:C1 7.58405e-06
13 *619:A3 *636:C1 4.01094e-05
14 *622:A1 *636:C1 1.54516e-05
15 *623:A1 *624:B2 2.52965e-06
16 *624:B1 *624:B2 4.31185e-06
17 *624:B1 *636:C1 4.69921e-05
18 *630:B *636:C1 4.7875e-06
19 *631:A2 *636:C1 1.62377e-05
20 *141:61 *636:C1 5.90763e-06
21 *190:49 *636:C1 2.37916e-06
22 *241:60 *636:C1 1.61249e-06
23 *278:33 *636:C1 3.40442e-05
24 *281:14 *624:B2 4.31185e-06
25 *281:14 *636:C1 3.19164e-07
26 *281:14 *283:8 1.13641e-05
*RES
1 *623:ZN *283:8 6.67857 
2 *283:8 *624:B2 7.25 
3 *283:8 *636:C1 47.1429 
*END

*D_NET *284 0.000865934
*CONN
*I *637:A1 I *D NOR4_X4
*I *624:ZN O *D AOI22_X1
*CAP
1 *637:A1 0.000246797
2 *624:ZN 0.000104084
3 *284:28 0.000350881
4 *284:28 *633:A 8.89108e-06
5 *284:28 *285:8 2.79745e-06
6 *611:A1 *637:A1 0
7 *619:A2 *284:28 2.60941e-05
8 *619:A3 *284:28 7.66691e-06
9 *620:A2 *637:A1 9.47198e-06
10 *621:A1 *637:A1 1.74934e-05
11 *621:A2 *637:A1 0
12 *624:B1 *284:28 2.73644e-05
13 *624:B2 *284:28 1.32323e-05
14 *636:B2 *637:A1 0
15 *636:C1 *284:28 1.80477e-05
16 *190:49 *284:28 1.11258e-05
17 *241:60 *284:28 8.21012e-06
18 *281:14 *637:A1 4.05872e-06
19 *281:14 *284:28 9.08e-06
20 *283:8 *284:28 6.38328e-07
*RES
1 *624:ZN *284:28 44.3629 
2 *284:28 *637:A1 40.4643 
*END

*D_NET *285 0.00105689
*CONN
*I *633:B2 I *D OAI21_X4
*I *629:A2 I *D NOR4_X2
*I *625:ZN O *D OR2_X4
*CAP
1 *633:B2 0
2 *629:A2 0.000106312
3 *625:ZN 0.000166374
4 *285:8 0.000272686
5 *629:A2 *632:A1 5.11645e-05
6 *629:A2 *633:B1 0
7 *629:A2 *637:A2 8.67927e-05
8 *629:A2 *644:B1 3.82997e-06
9 *629:A2 *338:22 2.75346e-06
10 *285:8 *632:A4 0
11 *475:B1 *285:8 1.04048e-06
12 *597:B1 *285:8 6.44191e-06
13 *619:A3 *285:8 4.57782e-06
14 *630:B *285:8 7.52209e-06
15 *631:A2 *285:8 0
16 *632:A2 *629:A2 0
17 *632:A2 *285:8 0
18 *636:C1 *285:8 7.7623e-06
19 *636:C2 *285:8 0.000322791
20 *141:61 *285:8 0
21 *241:58 *285:8 0
22 *270:12 *285:8 1.40436e-05
23 *284:28 *285:8 2.79745e-06
*RES
1 *625:ZN *285:8 33.3214 
2 *285:8 *629:A2 24.0714 
3 *285:8 *633:B2 10 
*END

*D_NET *286 0.000358312
*CONN
*I *627:A3 I *D NAND3_X1
*I *626:ZN O *D AOI22_X1
*CAP
1 *627:A3 0.000120199
2 *626:ZN 0.000120199
3 *627:A3 *373:47 2.95526e-05
4 *627:A3 *383:41 1.24586e-05
5 *563:B2 *627:A3 4.29961e-05
6 *627:A1 *627:A3 1.54337e-05
7 *627:A2 *627:A3 2.75346e-06
8 *272:16 *627:A3 4.49583e-06
9 *274:12 *627:A3 1.02238e-05
10 *278:16 *627:A3 0
*RES
1 *626:ZN *627:A3 38.7971 
*END

*D_NET *287 0.00124085
*CONN
*I *634:A3 I *D NAND3_X1
*I *628:A3 I *D NAND3_X1
*I *627:ZN O *D NAND3_X1
*CAP
1 *634:A3 6.61652e-05
2 *628:A3 3.17538e-05
3 *627:ZN 0.000109795
4 *287:20 0.000314009
5 *287:18 0.000325886
6 *628:A3 *338:22 0
7 *287:18 *658:B 1.88334e-06
8 *287:18 *659:B 2.96955e-05
9 *287:18 *338:16 5.37141e-06
10 *287:18 *381:21 1.52538e-05
11 *287:18 *382:8 2.20001e-07
12 *287:18 *382:25 4.24402e-05
13 *287:20 *651:B 4.26314e-06
14 *287:20 *651:S 1.11435e-06
15 *287:20 *652:A 4.9678e-06
16 *287:20 *652:S 3.74974e-06
17 *287:20 *338:16 1.23015e-05
18 *287:20 *338:22 0
19 *287:20 *345:14 9.53013e-06
20 *287:20 *346:12 2.35309e-05
21 *287:20 *371:14 7.48525e-05
22 *287:20 *371:28 1.87418e-05
23 *287:20 *373:14 3.74029e-06
24 *563:B2 *287:18 6.11168e-05
25 *592:A *287:20 0
26 *600:A *287:20 0
27 *628:A2 *628:A3 2.75346e-06
28 *631:A1 *634:A3 8.43215e-07
29 *632:A3 *628:A3 2.16072e-07
30 *634:A2 *634:A3 2.39679e-06
31 *708:D *287:18 6.70982e-05
32 *709:D *287:20 7.1606e-06
33 *709:RN *287:20 0
34 *65:6 *287:20 0
35 *278:20 *634:A3 0
*RES
1 *627:ZN *287:18 39.6786 
2 *287:18 *287:20 24.75 
3 *287:20 *628:A3 8.92857 
4 *287:20 *634:A3 11.3929 
*END

*D_NET *288 9.50553e-05
*CONN
*I *629:A4 I *D NOR4_X2
*I *628:ZN O *D NAND3_X1
*CAP
1 *629:A4 2.44895e-05
2 *628:ZN 2.44895e-05
3 *629:A4 *633:A 3.81615e-06
4 *264:24 *629:A4 1.20229e-05
5 *281:29 *629:A4 3.02372e-05
*RES
1 *628:ZN *629:A4 23.6429 
*END

*D_NET *289 0.000450301
*CONN
*I *637:A2 I *D NOR4_X4
*I *629:ZN O *D NOR4_X2
*CAP
1 *637:A2 0.000142897
2 *629:ZN 0.000142897
3 *637:A2 *633:A 2.80734e-05
4 *637:A2 *633:B1 0
5 *637:A2 *637:A3 0
6 *637:A2 *638:A2 0
7 *637:A2 *644:B1 5.04378e-06
8 *637:A2 *297:12 4.4596e-05
9 *629:A2 *637:A2 8.67927e-05
*RES
1 *629:ZN *637:A2 29.0714 
*END

*D_NET *290 0.000734947
*CONN
*I *633:A I *D OAI21_X4
*I *630:ZN O *D OAI211_X2
*CAP
1 *633:A 0.000213454
2 *630:ZN 0.000213454
3 *633:A *632:A4 5.63554e-05
4 *633:A *644:B1 6.71561e-05
5 *623:A3 *633:A 2.94455e-05
6 *624:B1 *633:A 2.89018e-05
7 *629:A4 *633:A 3.81615e-06
8 *631:A2 *633:A 8.1183e-06
9 *632:A2 *633:A 5.10087e-06
10 *636:C1 *633:A 4.16195e-06
11 *637:A2 *633:A 2.80734e-05
12 *190:49 *633:A 0
13 *241:58 *633:A 2.26343e-05
14 *241:60 *633:A 2.00778e-05
15 *241:64 *633:A 2.0679e-05
16 *264:24 *633:A 0
17 *278:33 *633:A 4.62745e-06
18 *281:25 *633:A 0
19 *281:29 *633:A 0
20 *284:28 *633:A 8.89108e-06
*RES
1 *630:ZN *633:A 48.2143 
*END

*D_NET *291 0.000164366
*CONN
*I *632:A4 I *D OR4_X2
*I *631:ZN O *D NAND2_X1
*CAP
1 *632:A4 2.95611e-05
2 *631:ZN 2.95611e-05
3 *632:A4 *633:B1 2.52965e-06
4 *631:A2 *632:A4 6.99525e-06
5 *632:A2 *632:A4 3.16378e-05
6 *632:A3 *632:A4 7.72537e-06
7 *633:A *632:A4 5.63554e-05
8 *285:8 *632:A4 0
*RES
1 *631:ZN *632:A4 25.3929 
*END

*D_NET *292 0.000171226
*CONN
*I *633:B1 I *D OAI21_X4
*I *632:ZN O *D OR4_X2
*CAP
1 *633:B1 7.65105e-05
2 *632:ZN 7.65105e-05
3 *633:B1 *636:B1 0
4 *633:B1 *637:A3 0
5 *629:A2 *633:B1 0
6 *631:A1 *633:B1 3.19164e-07
7 *632:A2 *633:B1 1.25215e-05
8 *632:A3 *633:B1 2.11815e-06
9 *632:A4 *633:B1 2.52965e-06
10 *636:C1 *633:B1 7.16188e-07
11 *637:A2 *633:B1 0
*RES
1 *632:ZN *633:B1 18.1071 
*END

*D_NET *293 0.000115159
*CONN
*I *637:A3 I *D NOR4_X4
*I *633:ZN O *D OAI21_X4
*CAP
1 *637:A3 5.39069e-05
2 *633:ZN 5.39069e-05
3 *637:A3 *637:A4 7.34533e-06
4 *633:B1 *637:A3 0
5 *636:B2 *637:A3 0
6 *637:A2 *637:A3 0
*RES
1 *633:ZN *637:A3 15.6786 
*END

*D_NET *294 0.000231471
*CONN
*I *636:A I *D OAI221_X2
*I *634:ZN O *D NAND3_X1
*CAP
1 *636:A 8.9662e-05
2 *634:ZN 8.9662e-05
3 *636:A *636:B1 4.79658e-06
4 *619:A3 *636:A 4.12459e-06
5 *622:A2 *636:A 7.19036e-06
6 *623:A3 *636:A 1.75939e-05
7 *634:A1 *636:A 5.44551e-06
8 *635:A1 *636:A 6.48216e-07
9 *636:B2 *636:A 2.16072e-07
10 *278:27 *636:A 7.40596e-06
11 *281:14 *636:A 4.72575e-06
*RES
1 *634:ZN *636:A 19.8571 
*END

*D_NET *295 0.000106396
*CONN
*I *636:B1 I *D OAI221_X2
*I *635:ZN O *D NAND2_X1
*CAP
1 *636:B1 4.45349e-05
2 *635:ZN 4.45349e-05
3 *633:B1 *636:B1 0
4 *636:A *636:B1 4.79658e-06
5 *636:B2 *636:B1 7.72792e-06
6 *636:C1 *636:B1 4.80114e-06
*RES
1 *635:ZN *636:B1 14.75 
*END

*D_NET *296 0.000105776
*CONN
*I *637:A4 I *D NOR4_X4
*I *636:ZN O *D OAI221_X2
*CAP
1 *637:A4 4.92152e-05
2 *636:ZN 4.92152e-05
3 *637:A3 *637:A4 7.34533e-06
*RES
1 *636:ZN *637:A4 15.1786 
*END

*D_NET *297 0.0006166
*CONN
*I *644:B2 I *D AOI21_X2
*I *638:A2 I *D NAND2_X2
*I *637:ZN O *D NOR4_X4
*CAP
1 *644:B2 0
2 *638:A2 0.000132019
3 *637:ZN 9.50065e-05
4 *297:12 0.000227026
5 *638:A2 *644:A 4.29713e-06
6 *638:A2 *644:B1 1.40387e-05
7 *638:A2 *659:A 2.39679e-06
8 *638:A2 *338:22 0
9 *637:A2 *638:A2 0
10 *637:A2 *297:12 4.4596e-05
11 *638:A1 *638:A2 2.39679e-06
12 *710:D *638:A2 9.48234e-05
*RES
1 *637:ZN *297:12 24.75 
2 *297:12 *638:A2 23.7857 
3 *297:12 *644:B2 5 
*END

*D_NET *298 0.00487942
*CONN
*I *654:S I *D MUX2_X1
*I *656:S I *D MUX2_X1
*I *657:S I *D MUX2_X1
*I *653:S I *D MUX2_X1
*I *655:S I *D MUX2_X1
*I *659:S I *D MUX2_X1
*I *658:S I *D MUX2_X1
*I *640:A2 I *D AND2_X1
*I *639:ZN O *D NAND4_X1
*CAP
1 *654:S 1.93154e-05
2 *656:S 8.71307e-06
3 *657:S 0.000150877
4 *653:S 0
5 *655:S 7.66549e-06
6 *659:S 7.54123e-05
7 *658:S 1.59845e-05
8 *640:A2 5.41917e-06
9 *639:ZN 2.59663e-05
10 *298:87 0.000300947
11 *298:79 0.000284923
12 *298:60 0.000390506
13 *298:41 0.000326068
14 *298:21 0.000377847
15 *298:12 0.000570013
16 *298:8 0.000356257
17 *640:A2 *640:A1 2.75346e-06
18 *655:S *424:A 0
19 *655:S *655:A 2.75346e-06
20 *655:S *351:6 6.48216e-07
21 *657:S *588:A 0
22 *657:S *656:A 1.27666e-06
23 *657:S *343:20 4.13792e-05
24 *658:S *658:A 2.98439e-06
25 *659:S *658:A 0.000115382
26 *659:S *658:B 3.89107e-05
27 *659:S *659:A 2.75346e-06
28 *298:8 *398:A 9.6515e-06
29 *298:12 *518:A2 7.46774e-06
30 *298:12 *640:A1 8.4663e-06
31 *298:12 *352:8 1.88334e-06
32 *298:21 *414:A 4.80114e-06
33 *298:41 *641:A1 0.000121008
34 *298:41 *641:A3 6.31115e-06
35 *298:41 *299:10 0.000152175
36 *298:41 *299:20 1.29999e-05
37 *298:41 *352:8 9.53714e-06
38 *298:60 *524:A 0
39 *298:60 *646:B 0
40 *298:60 *653:A 1.25215e-05
41 *298:60 *700:D 8.73663e-05
42 *298:60 *299:20 9.25365e-05
43 *298:60 *299:35 0.000157708
44 *298:79 *539:C2 2.74207e-06
45 *298:79 *653:A 2.75346e-06
46 *298:79 *366:12 1.39292e-05
47 *298:79 *366:16 2.96955e-05
48 *298:79 *376:12 4.51786e-07
49 *298:87 *529:A 9.40738e-06
50 *298:87 *647:A 7.77781e-06
51 *298:87 *654:A 3.83453e-06
52 *298:87 *341:8 9.66611e-07
53 *298:87 *341:23 0
54 *298:87 *367:25 2.39928e-06
55 *298:87 *377:8 6.5925e-07
56 *493:A1 *657:S 0
57 *493:A1 *298:87 1.20089e-05
58 *501:A *298:60 0
59 *501:A *298:79 2.16072e-07
60 *501:B1 *298:79 5.43035e-06
61 *502:A1 *298:87 0
62 *502:A3 *654:S 2.14856e-06
63 *502:A3 *298:87 0
64 *519:A2 *298:12 6.81111e-05
65 *521:B *298:12 1.09602e-05
66 *527:A1 *298:60 0
67 *569:A *657:S 0
68 *578:A *298:12 4.23397e-05
69 *641:A2 *298:8 3.52448e-06
70 *665:A *657:S 1.21774e-06
71 *665:A *298:87 3.19164e-06
72 *665:CI *657:S 0
73 *695:D *298:21 7.72792e-06
74 *696:D *298:12 0
75 *698:D *298:21 3.09143e-06
76 *700:CK *298:12 4.76443e-07
77 *700:CK *298:41 1.34992e-06
78 *703:D *298:60 0
79 *712:D *298:87 9.57492e-07
80 *712:CK *298:87 2.14856e-06
81 *57:8 *298:79 3.45285e-05
82 *98:12 *657:S 1.37557e-05
83 *98:18 *657:S 7.62806e-06
84 *98:22 *657:S 0
85 *98:22 *298:87 0
86 *98:35 *298:87 0
87 *99:70 *640:A2 7.72537e-06
88 *99:70 *298:21 3.90891e-05
89 *99:83 *298:21 6.86638e-05
90 *99:92 *298:21 7.87811e-06
91 *99:99 *658:S 3.58094e-06
92 *99:99 *298:21 3.57737e-05
93 *102:124 *298:21 0
94 *102:132 *659:S 2.55331e-06
95 *102:132 *298:21 0
96 *102:145 *659:S 1.37209e-05
97 *128:26 *657:S 0
98 *212:12 *298:12 3.19228e-05
99 *212:12 *298:41 1.4184e-05
100 *212:12 *298:60 5.23419e-05
101 *212:14 *298:60 0.000125549
102 *215:20 *298:79 0
103 *248:8 *298:12 0.000371818
*RES
1 *639:ZN *298:8 12.75 
2 *298:8 *298:12 43.25 
3 *298:12 *640:A2 5.75 
4 *298:12 *298:21 33.25 
5 *298:21 *658:S 7.17857 
6 *298:21 *659:S 17.8571 
7 *298:8 *298:41 11.7857 
8 *298:41 *655:S 10.75 
9 *298:41 *298:60 46.0357 
10 *298:60 *653:S 5 
11 *298:60 *298:79 24.1786 
12 *298:79 *298:87 25.8929 
13 *298:87 *657:S 21.8571 
14 *298:87 *656:S 5.92857 
15 *298:79 *654:S 7.25 
*END

*D_NET *299 0.00712954
*CONN
*I *648:S I *D MUX2_X1
*I *651:S I *D MUX2_X1
*I *652:S I *D MUX2_X1
*I *643:A2 I *D AND2_X1
*I *642:A2 I *D NOR2_X1
*I *650:S I *D MUX2_X1
*I *649:S I *D MUX2_X1
*I *647:S I *D MUX2_X1
*I *646:S I *D MUX2_X1
*I *641:ZN O *D NOR3_X2
*CAP
1 *648:S 0
2 *651:S 7.04041e-05
3 *652:S 5.61096e-05
4 *643:A2 4.02203e-05
5 *642:A2 0
6 *650:S 7.32571e-05
7 *649:S 0
8 *647:S 1.20856e-05
9 *646:S 0
10 *641:ZN 3.8773e-05
11 *299:97 0.00012319
12 *299:88 0.000104055
13 *299:82 0.000420067
14 *299:76 0.00101499
15 *299:54 0.000500961
16 *299:35 0.000831746
17 *299:20 0.000542907
18 *299:10 0.000932247
19 *643:A2 *644:A 3.02351e-05
20 *643:A2 *659:A 0
21 *643:A2 *338:16 0
22 *643:A2 *338:22 2.23871e-06
23 *647:S *341:23 3.78195e-07
24 *650:S *649:A 2.36158e-05
25 *650:S *344:14 4.7177e-05
26 *650:S *370:61 1.80284e-05
27 *650:S *386:16 2.10346e-05
28 *651:S *338:16 4.59417e-05
29 *651:S *371:14 2.05797e-05
30 *651:S *371:28 1.21774e-06
31 *651:S *373:14 3.34038e-05
32 *652:S *644:A 2.57414e-05
33 *652:S *338:16 1.86389e-05
34 *652:S *338:22 1.04853e-05
35 *652:S *338:44 2.08098e-06
36 *299:20 *404:A 2.96272e-05
37 *299:20 *526:A2 3.07768e-05
38 *299:20 *646:A 2.75346e-06
39 *299:20 *655:A 0.000182989
40 *299:20 *700:D 0.000131558
41 *299:20 *342:18 3.87852e-06
42 *299:20 *363:8 0.000107313
43 *299:35 *401:A 5.22531e-05
44 *299:35 *526:A2 3.11302e-05
45 *299:35 *646:A 7.72537e-06
46 *299:54 *542:B 0.000102239
47 *299:54 *369:10 8.71434e-06
48 *299:54 *369:12 2.61812e-06
49 *299:76 *348:14 3.07274e-05
50 *299:82 *466:A1 6.2767e-05
51 *299:82 *642:A1 3.49085e-06
52 *299:82 *690:B 1.11989e-07
53 *299:82 *371:61 7.4768e-06
54 *299:88 *642:A1 2.71253e-05
55 *299:88 *659:A 0
56 *299:97 *642:A1 1.21774e-06
57 *299:97 *659:A 0
58 *299:97 *338:16 0
59 dest_out[2] *299:20 4.65615e-06
60 *437:B2 *299:54 0
61 *441:C1 *650:S 5.41857e-05
62 *462:B2 *299:82 0.000235056
63 *468:B1 *299:76 3.45133e-06
64 *468:B1 *299:82 3.99225e-05
65 *468:B2 *299:82 0
66 *514:S *299:54 1.8518e-05
67 *524:B *299:35 7.80122e-06
68 *527:A2 *299:35 4.21218e-05
69 *643:A1 *643:A2 1.26998e-05
70 *689:B *299:82 4.24402e-05
71 *700:CK *299:20 4.71496e-06
72 *703:CK *299:20 0
73 *703:CK *299:35 0
74 *705:RN *299:82 8.6421e-06
75 *706:D *299:54 3.78929e-06
76 *709:D *652:S 8.33759e-07
77 *709:D *299:82 0
78 *709:CK *299:88 4.82127e-05
79 *3:12 *647:S 1.51278e-06
80 *9:8 *299:82 0
81 *64:10 *299:82 6.29746e-05
82 *64:10 *299:88 1.72405e-05
83 *102:20 *299:20 6.85774e-07
84 *102:26 *299:20 9.04867e-06
85 *102:165 *299:88 2.99187e-06
86 *109:18 *299:76 1.89581e-05
87 *115:77 *299:54 1.14339e-05
88 *128:51 *299:76 6.11676e-06
89 *128:51 *299:82 6.76e-05
90 *212:12 *299:10 3.27364e-05
91 *212:14 *299:35 1.44385e-05
92 *215:20 *299:35 1.57017e-05
93 *245:16 *299:76 0
94 *263:8 *643:A2 5.86754e-06
95 *263:8 *652:S 5.39659e-06
96 *264:14 *299:76 2.11986e-05
97 *287:20 *651:S 1.11435e-06
98 *287:20 *652:S 3.74974e-06
99 *298:41 *299:10 0.000152175
100 *298:41 *299:20 1.29999e-05
101 *298:60 *299:20 9.25365e-05
102 *298:60 *299:35 0.000157708
*RES
1 *641:ZN *299:10 23.0714 
2 *299:10 *299:20 35.9114 
3 *299:20 *646:S 5 
4 *299:20 *299:35 38.4286 
5 *299:35 *647:S 15.9643 
6 *299:35 *299:54 28.9857 
7 *299:54 *649:S 5 
8 *299:54 *650:S 16.4286 
9 *299:10 *299:76 30.3871 
10 *299:76 *299:82 37.8929 
11 *299:82 *299:88 15.0714 
12 *299:88 *642:A2 5 
13 *299:88 *299:97 7.75 
14 *299:97 *643:A2 14.8571 
15 *299:97 *652:S 17.0714 
16 *299:82 *651:S 20.1786 
17 *299:76 *648:S 10 
*END

*D_NET *300 0.000662454
*CONN
*I *644:A I *D AOI21_X2
*I *642:ZN O *D NOR2_X1
*CAP
1 *644:A 0.000242326
2 *642:ZN 0.000242326
3 *644:A *494:A 1.174e-05
4 alu_result_out[5] *644:A 2.4467e-05
5 alu_result_out[7] *644:A 1.74693e-06
6 *638:A1 *644:A 4.81464e-06
7 *638:A2 *644:A 4.29713e-06
8 *643:A2 *644:A 3.02351e-05
9 *652:S *644:A 2.57414e-05
10 *710:D *644:A 7.33304e-05
11 *263:8 *644:A 1.4293e-06
*RES
1 *642:ZN *644:A 48.25 
*END

*D_NET *301 0.000400308
*CONN
*I *644:B1 I *D AOI21_X2
*I *643:ZN O *D AND2_X1
*CAP
1 *644:B1 0.00015512
2 *643:ZN 0.00015512
3 *644:B1 *338:22 0
4 *629:A2 *644:B1 3.82997e-06
5 *633:A *644:B1 6.71561e-05
6 *637:A2 *644:B1 5.04378e-06
7 *638:A2 *644:B1 1.40387e-05
*RES
1 *643:ZN *644:B1 28.5 
*END

*D_NET *302 0.000171259
*CONN
*I *661:A2 I *D NOR2_X1
*I *660:ZN O *D NOR3_X1
*CAP
1 *661:A2 3.43575e-05
2 *660:ZN 3.43575e-05
3 *660:A3 *661:A2 7.57858e-06
4 *663:B2 *661:A2 1.57017e-05
5 *164:14 *661:A2 1.30565e-05
6 *241:39 *661:A2 4.78054e-06
7 *256:12 *661:A2 1.88334e-06
8 *264:16 *661:A2 5.95435e-05
*RES
1 *660:ZN *661:A2 25.5714 
*END

*D_NET *303 9.17109e-05
*CONN
*I *662:B I *D XNOR2_X1
*I *661:ZN O *D NOR2_X1
*CAP
1 *662:B 3.54826e-05
2 *661:ZN 3.54826e-05
3 *241:54 *662:B 4.33639e-06
4 *264:16 *662:B 1.64094e-05
*RES
1 *661:ZN *662:B 24.3214 
*END

*D_NET *304 0.000361065
*CONN
*I *664:B I *D XNOR2_X1
*I *663:ZN O *D AOI21_X1
*CAP
1 *664:B 7.36838e-05
2 *663:ZN 7.36838e-05
3 *664:B *455:C1 1.38599e-05
4 *664:B *675:B 2.13496e-05
5 *664:B *334:21 5.44945e-05
6 *585:B1 *664:B 4.29819e-05
7 *141:79 *664:B 8.10117e-05
*RES
1 *663:ZN *664:B 33.8214 
*END

*D_NET *332 0.000212493
*CONN
*I *686:B I *D HA_X1
*I *687:B I *D HA_X1
*I *540:ZN O *D INV_X1
*CAP
1 *686:B 3.5794e-05
2 *687:B 7.18307e-06
3 *540:ZN 3.35893e-05
4 *332:6 7.65663e-05
5 *482:A2 *332:6 0
6 *484:B1 *332:6 1.18547e-06
7 *676:A *686:B 3.81845e-05
8 *676:A *687:B 1.87637e-06
9 *703:RN *332:6 0
10 *57:8 *686:B 0
11 *182:90 *686:B 1.81144e-05
*RES
1 *540:ZN *332:6 8.64286 
2 *332:6 *687:B 5.75 
3 *332:6 *686:B 9.67857 
*END

*D_NET *333 0.000492001
*CONN
*I *568:B I *D MUX2_X1
*I *677:B I *D HA_X1
*I *587:A I *D INV_X1
*I *536:ZN O *D NAND2_X1
*CAP
1 *568:B 5.70937e-05
2 *677:B 0
3 *587:A 0
4 *536:ZN 1.96989e-05
5 *333:19 0.000107518
6 *333:8 7.01231e-05
7 *568:B *542:S 5.00811e-06
8 *568:B *367:25 3.88948e-06
9 *568:B *367:27 6.24846e-06
10 *568:B *367:40 9.03578e-07
11 *568:B *367:78 1.1087e-05
12 *333:8 *542:S 4.21607e-06
13 *333:19 *542:S 2.10235e-05
14 *476:A1 *568:B 2.08098e-06
15 *484:B2 *568:B 4.79704e-05
16 *492:B1 *568:B 2.96965e-05
17 *539:B1 *333:19 2.08098e-06
18 *604:A3 *333:19 4.04037e-05
19 *43:23 *333:19 5.34005e-05
20 *223:16 *333:8 4.78054e-06
21 *223:16 *333:19 4.77786e-06
*RES
1 *536:ZN *333:8 7.17857 
2 *333:8 *587:A 5 
3 *333:8 *333:19 11.9286 
4 *333:19 *677:B 10 
5 *333:19 *568:B 17.7143 
*END

*D_NET *334 0.000519337
*CONN
*I *584:A2 I *D NOR2_X1
*I *583:A I *D XNOR2_X1
*I *675:B I *D HA_X1
*I *576:ZN O *D INV_X1
*CAP
1 *584:A2 2.15575e-05
2 *583:A 5.48473e-05
3 *675:B 4.86634e-05
4 *576:ZN 0
5 *334:21 0.000117842
6 *334:6 9.01004e-05
7 *583:A *335:12 9.11897e-09
8 *584:A2 *335:12 1.28122e-06
9 *675:B *455:C1 2.57909e-05
10 *334:21 *455:C1 5.16272e-05
11 *506:A *583:A 0
12 *583:B *583:A 7.72537e-06
13 *585:A *584:A2 2.39679e-06
14 *585:B1 *584:A2 1.68643e-06
15 *664:B *675:B 2.13496e-05
16 *664:B *334:21 5.44945e-05
17 *30:22 *675:B 8.89375e-06
18 *44:20 *583:A 5.81113e-06
19 *44:20 *584:A2 1.60494e-06
20 *141:79 *675:B 2.37916e-06
21 *164:14 *675:B 0
22 *241:22 *583:A 1.27666e-06
*RES
1 *576:ZN *334:6 10 
2 *334:6 *675:B 16.3929 
3 *334:6 *334:21 12.7143 
4 *334:21 *583:A 10.4286 
5 *334:21 *584:A2 7.25 
*END

*D_NET *335 0.000598109
*CONN
*I *673:B I *D HA_X1
*I *664:A I *D XNOR2_X1
*I *584:A1 I *D NOR2_X1
*I *546:ZN O *D INV_X1
*CAP
1 *673:B 1.3246e-05
2 *664:A 6.62231e-06
3 *584:A1 1.50803e-05
4 *546:ZN 4.81203e-06
5 *335:12 0.000157534
6 *335:8 0.000153889
7 *335:12 *505:A1 4.32144e-07
8 *335:12 *387:18 8.48335e-05
9 *439:C1 *335:12 3.58094e-06
10 *439:C2 *335:12 8.26038e-06
11 *503:A *664:A 1.21774e-06
12 *504:B2 *673:B 4.88069e-05
13 *504:B2 *335:8 1.66324e-05
14 *504:B2 *335:12 0
15 *505:A2 *335:12 1.19193e-05
16 *506:A *335:12 0
17 *583:A *335:12 9.11897e-09
18 *583:B *335:12 9.57492e-07
19 *584:A2 *335:12 1.28122e-06
20 *681:B *664:A 0
21 *681:B *335:12 0
22 *125:62 *673:B 5.29342e-05
23 *125:62 *335:8 1.60602e-05
24 *241:22 *335:12 0
*RES
1 *546:ZN *335:8 10.9286 
2 *335:8 *335:12 20.25 
3 *335:12 *584:A1 6.60714 
4 *335:12 *664:A 5.75 
5 *335:8 *673:B 12.9643 
*END

*D_NET *336 0.000665588
*CONN
*I *671:B I *D HA_X1
*I *586:A I *D XNOR2_X1
*I *660:A1 I *D NOR3_X1
*I *551:ZN O *D INV_X1
*CAP
1 *671:B 6.35328e-05
2 *586:A 1.11124e-05
3 *660:A1 6.88965e-05
4 *551:ZN 0
5 *336:8 0.000238168
6 *336:6 0.000221691
7 *671:B *688:A 0
8 *671:B *369:73 4.43868e-06
9 *336:8 *688:A 0
10 *336:8 *369:73 1.04526e-05
11 *431:A *671:B 0
12 *431:A *336:8 0
13 *503:A *336:8 0
14 *585:A *336:8 0
15 *688:B *336:8 0
16 *44:35 *586:A 7.9624e-06
17 *44:35 *660:A1 0
18 *44:35 *336:8 0
19 *150:20 *671:B 0
20 *241:33 *660:A1 0
21 *256:12 *586:A 0
22 *256:12 *660:A1 2.6099e-05
23 *256:23 *660:A1 1.32348e-05
*RES
1 *551:ZN *336:6 10 
2 *336:6 *336:8 15.1786 
3 *336:8 *660:A1 18.2857 
4 *336:8 *586:A 11.75 
5 *336:6 *671:B 16.3571 
*END

*D_NET *337 0.000420403
*CONN
*I *662:A I *D XNOR2_X1
*I *669:B I *D HA_X1
*I *559:ZN O *D INV_X1
*CAP
1 *662:A 5.04985e-05
2 *669:B 3.24719e-05
3 *559:ZN 4.6534e-05
4 *337:10 0.000129504
5 *662:A *683:A 2.55787e-06
6 *669:B *669:A 7.72537e-06
7 *669:B *679:A 1.11556e-05
8 *669:B *372:65 8.43215e-07
9 *337:10 *667:B 1.50573e-05
10 *337:10 *338:55 1.52083e-06
11 *475:B1 *337:10 0
12 *605:A *662:A 1.75794e-05
13 *605:A *669:B 0
14 *624:A2 *662:A 3.76493e-05
15 *624:A2 *337:10 3.43627e-05
16 *663:B2 *662:A 1.88334e-06
17 *264:16 *662:A 2.08098e-06
18 *264:24 *662:A 1.87741e-05
19 *264:24 *337:10 1.02042e-05
*RES
1 *559:ZN *337:10 16.25 
2 *337:10 *669:B 13.25 
3 *337:10 *662:A 17.4286 
*END

*D_NET *338 0.00289922
*CONN
*I *667:B I *D HA_X1
*I *598:A I *D XNOR2_X1
*I *564:A I *D INV_X1
*I *632:A1 I *D OR4_X2
*I *629:A1 I *D NOR4_X2
*I *563:ZN O *D OAI21_X1
*CAP
1 *667:B 0.000151826
2 *598:A 0.000118884
3 *564:A 0
4 *632:A1 4.55854e-05
5 *629:A1 0
6 *563:ZN 0.000229299
7 *338:55 0.000368298
8 *338:44 0.000175282
9 *338:22 0.000118532
10 *338:16 0.000379941
11 *598:A *679:A 0
12 *667:B *452:A1 1.61446e-06
13 *667:B *679:A 1.40575e-05
14 *667:B *371:61 2.30024e-06
15 *667:B *371:76 0
16 *667:B *372:65 2.35752e-05
17 *338:16 *642:A1 1.43238e-06
18 *338:16 *371:28 1.01754e-05
19 *338:16 *382:8 1.0499e-05
20 *338:16 *382:25 4.78746e-06
21 *338:22 *652:A 0
22 *338:44 *346:12 0.000207508
23 *338:44 *372:55 1.26946e-05
24 *338:55 *652:A 1.59582e-06
25 *338:55 *372:55 0
26 *455:A *667:B 1.79534e-05
27 *468:A1 *667:B 3.21681e-05
28 *468:A2 *667:B 1.72405e-05
29 *468:B1 *667:B 3.44961e-05
30 *470:A2 *338:44 0
31 *470:A3 *667:B 2.08416e-06
32 *475:B1 *598:A 1.27114e-05
33 *559:A *667:B 0
34 *563:B2 *338:16 0
35 *598:B *598:A 1.90952e-05
36 *603:A *338:44 1.8031e-05
37 *624:A1 *338:55 2.25658e-05
38 *624:A2 *338:55 4.3537e-05
39 *625:A2 *598:A 0
40 *628:A3 *338:22 0
41 *629:A2 *632:A1 5.11645e-05
42 *629:A2 *338:22 2.75346e-06
43 *632:A3 *632:A1 1.616e-05
44 *632:A3 *338:22 7.16188e-07
45 *638:A2 *338:22 0
46 *643:A2 *338:16 0
47 *643:A2 *338:22 2.23871e-06
48 *644:B1 *338:22 0
49 *651:S *338:16 4.59417e-05
50 *652:S *338:16 1.86389e-05
51 *652:S *338:22 1.04853e-05
52 *652:S *338:44 2.08098e-06
53 *708:D *338:16 0
54 *708:CK *338:16 0
55 *709:D *338:44 0
56 *709:CK *338:16 5.53164e-05
57 *710:RN *338:16 0
58 *102:152 *338:16 0
59 *128:55 *667:B 8.56923e-06
60 *141:61 *338:44 0
61 *141:61 *338:55 0
62 *241:54 *598:A 1.27666e-06
63 *263:8 *338:22 4.26902e-05
64 *263:8 *338:44 0.000233495
65 *264:24 *667:B 4.26902e-05
66 *264:24 *338:55 0.000232983
67 *287:18 *338:16 5.37141e-06
68 *287:20 *338:16 1.23015e-05
69 *287:20 *338:22 0
70 *299:97 *338:16 0
71 *337:10 *667:B 1.50573e-05
72 *337:10 *338:55 1.52083e-06
*RES
1 *563:ZN *338:16 37.4643 
2 *338:16 *338:22 13.5357 
3 *338:22 *629:A1 5 
4 *338:22 *632:A1 11.9286 
5 *338:16 *338:44 21.25 
6 *338:44 *564:A 5 
7 *338:44 *338:55 21.2143 
8 *338:55 *598:A 22.3571 
9 *338:55 *667:B 39.5714 
*END

*D_NET *339 0.000258107
*CONN
*I *690:B I *D HA_X1
*I *592:ZN O *D INV_X1
*CAP
1 *690:B 5.43458e-05
2 *592:ZN 5.43458e-05
3 *690:B *466:A1 4.32537e-06
4 *690:B *690:A 8.43215e-07
5 *690:B *371:61 3.18093e-05
6 *690:B *372:26 7.09711e-06
7 *600:B *690:B 2.53873e-05
8 *64:10 *690:B 7.98408e-05
9 *299:82 *690:B 1.11989e-07
*RES
1 *592:ZN *690:B 27.75 
*END

*D_NET *354 0.000187433
*CONN
*P alu_result_out[0] O
*I *693:Z O *D BUF_X1
*CAP
1 alu_result_out[0] 5.00433e-05
2 *693:Z 5.00433e-05
3 alu_result_out[0] alu_result_out[2] 4.03593e-05
4 pc_out[5] alu_result_out[0] 4.03593e-05
5 *713:CK alu_result_out[0] 6.62796e-06
*RES
1 *693:Z alu_result_out[0] 24.625 
*END

*D_NET *357 0.000207195
*CONN
*P alu_result_out[1] O
*I *692:Z O *D BUF_X1
*CAP
1 alu_result_out[1] 0.000103597
2 *692:Z 0.000103597
*RES
1 *692:Z alu_result_out[1] 26.1464 
*END

*D_NET *356 0.00017668
*CONN
*P alu_result_out[2] O
*I *691:Z O *D BUF_X1
*CAP
1 alu_result_out[2] 5.4166e-05
2 *691:Z 5.4166e-05
3 alu_result_out[0] alu_result_out[2] 4.03593e-05
4 pc_out[2] alu_result_out[2] 2.10915e-05
5 *713:CK alu_result_out[2] 6.89701e-06
*RES
1 *691:Z alu_result_out[2] 24.6607 
*END

*D_NET *95 0.000203996
*CONN
*P alu_result_out[3] O
*I *645:Z O *D BUF_X1
*CAP
1 alu_result_out[3] 0.000100555
2 *645:Z 0.000100555
3 alu_result_out[3] alu_result_out[4] 2.885e-06
*RES
1 *645:Z alu_result_out[3] 22.095 
*END

*D_NET *252 0.000593919
*CONN
*P alu_result_out[4] O
*I *588:Z O *D BUF_X1
*CAP
1 alu_result_out[4] 0.000191624
2 *588:Z 0.000191624
3 alu_result_out[4] *645:A 1.5367e-05
4 alu_result_out[4] *379:8 0
5 alu_result_out[4] *384:8 0.000186136
6 alu_result_out[3] alu_result_out[4] 2.885e-06
7 *719:D alu_result_out[4] 8.43215e-07
8 *98:12 alu_result_out[4] 3.51992e-06
9 *102:244 alu_result_out[4] 1.91954e-06
*RES
1 *588:Z alu_result_out[4] 41.8864 
*END

*D_NET *242 0.000447023
*CONN
*P alu_result_out[5] O
*I *567:Z O *D BUF_X1
*CAP
1 alu_result_out[5] 0.000129551
2 *567:Z 0.000129551
3 alu_result_out[5] *494:A 1.52083e-06
4 alu_result_out[5] *525:A 8.75656e-06
5 alu_result_out[5] *644:A 2.4467e-05
6 alu_result_out[6] alu_result_out[5] 0.000153176
*RES
1 *567:Z alu_result_out[5] 29.1207 
*END

*D_NET *71 0.000340727
*CONN
*P alu_result_out[6] O
*I *525:Z O *D BUF_X1
*CAP
1 alu_result_out[6] 8.62761e-05
2 *525:Z 8.62761e-05
3 alu_result_out[6] alu_result_out[5] 0.000153176
4 alu_result_out[6] alu_result_out[7] 1.49985e-05
*RES
1 *525:Z alu_result_out[6] 24.9821 
*END

*D_NET *194 0.000245055
*CONN
*P alu_result_out[7] O
*I *494:Z O *D BUF_X1
*CAP
1 alu_result_out[7] 8.3798e-05
2 *494:Z 8.3798e-05
3 alu_result_out[7] *494:A 2.19343e-06
4 alu_result_out[7] *644:A 1.74693e-06
5 alu_result_out[7] *348:14 5.85199e-05
6 alu_result_out[6] alu_result_out[7] 1.49985e-05
*RES
1 *494:Z alu_result_out[7] 22.4879 
*END

*D_NET *348 0.00189057
*CONN
*P clk I
*I *394:A I *D CLKBUF_X3
*CAP
1 clk 0.00080441
2 *394:A 2.02657e-05
3 *348:18 4.1458e-05
4 *348:14 0.000825602
5 *348:14 *358:229 7.79339e-06
6 alu_result_out[7] *348:14 5.85199e-05
7 *507:A2 *348:14 8.83477e-06
8 *509:B1 *348:14 1.71261e-05
9 *509:B2 *394:A 9.62051e-07
10 *509:B2 *348:18 1.28122e-06
11 *595:C2 *348:14 1.14119e-05
12 *109:18 *348:14 1.32519e-05
13 *190:45 *348:14 3.26478e-05
14 *220:18 *394:A 2.37429e-06
15 *220:18 *348:14 1.00488e-05
16 *220:18 *348:18 3.40914e-06
17 *220:31 *348:14 4.4625e-07
18 *264:14 *348:14 0
19 *299:76 *348:14 3.07274e-05
*RES
1 clk *348:14 46.4079 
2 *348:14 *348:18 6.75 
3 *348:18 *394:A 7.25 
*END

*D_NET *100 0.00125393
*CONN
*I *392:A I *D CLKBUF_X3
*I *393:A I *D CLKBUF_X3
*I *394:Z O *D CLKBUF_X3
*CAP
1 *392:A 2.60905e-05
2 *393:A 1.78667e-05
3 *394:Z 1.80527e-05
4 *100:39 0.000247507
5 *100:21 0.000207331
6 *100:8 0.000428934
7 *392:A *549:C1 6.18132e-07
8 *392:A *124:23 7.75112e-07
9 *392:A *182:65 4.63903e-06
10 *393:A *466:B1 1.02793e-05
11 *393:A *111:82 6.38328e-07
12 *100:8 *509:B2 5.91186e-06
13 *100:8 *220:18 0
14 *100:21 *451:A1 1.84075e-05
15 *100:21 *466:B1 3.74029e-06
16 *100:21 *476:A2 2.75081e-05
17 *100:21 *509:B2 6.47121e-06
18 *100:21 *595:B 7.66675e-07
19 *100:21 *595:C1 8.58925e-06
20 *100:21 *111:82 3.07064e-06
21 *100:21 *182:23 9.74733e-05
22 *100:21 *220:18 7.75524e-06
23 *100:39 *421:A 9.1719e-06
24 *100:39 *509:B2 1.56126e-06
25 *100:39 *544:C1 6.23605e-06
26 *100:39 *549:C2 2.30782e-06
27 *100:39 *682:A 8.92449e-06
28 *100:39 *122:16 3.58925e-06
29 *100:39 *182:23 2.7764e-05
30 *100:39 *182:34 7.73487e-06
31 *100:39 *182:47 1.45461e-05
32 *100:39 *230:16 3.1257e-06
33 *100:39 *380:42 1.66234e-05
34 *482:A1 *100:39 5.83831e-07
35 *534:B2 *100:39 8.46879e-07
36 *705:CK *393:A 0
37 *705:CK *100:21 0
38 *1:98 *100:39 6.25429e-06
39 *15:14 *100:21 0
40 *98:122 *392:A 2.23871e-06
41 *99:31 *393:A 0
*RES
1 *394:Z *100:8 11.75 
2 *100:8 *100:21 29.7143 
3 *100:21 *393:A 7.25 
4 *100:8 *100:39 22.8572 
5 *100:39 *392:A 13.1786 
*END

*D_NET *99 0.00589086
*CONN
*I *767:A I *D INV_X2
*I *700:CK I *D DFFR_X1
*I *697:CK I *D DFFR_X1
*I *710:CK I *D DFFR_X1
*I *709:CK I *D DFFR_X1
*I *708:CK I *D DFFR_X1
*I *717:CK I *D DFFR_X1
*I *716:CK I *D DFFR_X1
*I *698:CK I *D DFFR_X1
*I *695:CK I *D DFFR_X1
*I *696:CK I *D DFFR_X1
*I *718:CK I *D DFFR_X1
*I *705:CK I *D DFFR_X1
*I *393:Z O *D CLKBUF_X3
*CAP
1 *767:A 0
2 *700:CK 0.000186461
3 *697:CK 0
4 *710:CK 1.45887e-05
5 *709:CK 8.58056e-05
6 *708:CK 3.07148e-05
7 *717:CK 0
8 *716:CK 0
9 *698:CK 0
10 *695:CK 0
11 *696:CK 0
12 *718:CK 3.74504e-05
13 *705:CK 0.000189423
14 *393:Z 8.71307e-06
15 *99:121 0.000168077
16 *99:117 0.000138386
17 *99:108 0.000185957
18 *99:99 0.000355728
19 *99:92 0.000285284
20 *99:83 0.000123649
21 *99:70 0.000160186
22 *99:57 0.000309178
23 *99:53 0.000253891
24 *99:43 0.000621446
25 *99:31 0.000497145
26 *99:6 0.000322268
27 *700:CK dest_out[2] 2.32566e-05
28 *700:CK pc_out[2] 3.35155e-05
29 *700:CK *521:A 1.857e-05
30 *700:CK *578:A 5.15866e-06
31 *700:CK *641:A1 2.12015e-05
32 *700:CK *641:A3 2.71623e-06
33 *700:CK *655:A 9.90932e-06
34 *700:CK *655:B 2.64346e-05
35 *700:CK *693:A 0
36 *700:CK *102:26 6.77727e-05
37 *700:CK *102:28 0.000477961
38 *700:CK *102:32 2.3352e-05
39 *700:CK *298:12 4.76443e-07
40 *700:CK *298:41 1.34992e-06
41 *700:CK *299:20 4.71496e-06
42 *700:CK *352:8 6.49787e-06
43 *700:CK *360:10 1.95235e-05
44 *700:CK *378:10 1.74095e-05
45 *700:CK *378:29 1.28122e-06
46 *705:CK *393:A 0
47 *705:CK *453:A 4.47286e-06
48 *705:CK *466:B1 0
49 *705:CK *595:B 0
50 *705:CK *595:C1 0
51 *705:CK *595:C2 8.26038e-06
52 *705:CK *601:B1 1.72426e-05
53 *705:CK *100:21 0
54 *705:CK *125:10 6.07323e-06
55 *705:CK *154:34 0.000134491
56 *705:CK *182:8 1.39292e-05
57 *705:CK *358:203 0
58 *708:CK *659:A 1.07393e-05
59 *708:CK *710:RN 1.76939e-05
60 *708:CK *102:152 3.55117e-05
61 *708:CK *338:16 0
62 *709:CK *642:A1 3.35822e-05
63 *709:CK *102:156 1.99644e-05
64 *709:CK *102:165 1.11168e-06
65 *709:CK *299:88 4.82127e-05
66 *709:CK *338:16 5.53164e-05
67 *710:CK *567:A 5.7295e-06
68 *710:CK *659:A 3.55053e-06
69 *718:CK *640:A1 0
70 *99:31 *393:A 0
71 *99:31 *397:A2 0
72 *99:31 *406:A1 2.24766e-05
73 *99:31 *508:A2 1.03315e-06
74 *99:31 *614:A2 0
75 *99:31 *111:71 4.88016e-06
76 *99:31 *111:82 3.72284e-05
77 *99:31 *112:89 1.14365e-05
78 *99:31 *181:23 6.65423e-06
79 *99:31 *182:8 6.09384e-05
80 *99:31 *361:132 6.91187e-06
81 *99:43 pc_out[1] 0
82 *99:43 *423:A3 1.18589e-06
83 *99:43 *436:A2 6.85774e-07
84 *99:43 *486:A 0
85 *99:43 *521:B 1.62742e-05
86 *99:43 *523:A2 7.67817e-06
87 *99:43 *581:A1 0
88 *99:43 *614:A2 0
89 *99:43 *101:23 4.90711e-06
90 *99:43 *105:25 1.28122e-06
91 *99:43 *111:71 2.845e-06
92 *99:43 *112:16 5.08295e-05
93 *99:43 *115:10 6.54288e-06
94 *99:43 *128:8 6.5388e-06
95 *99:43 *140:8 4.79202e-06
96 *99:43 *141:12 1.91954e-06
97 *99:43 *212:12 0
98 *99:43 *358:40 0
99 *99:43 *358:49 0
100 *99:43 *359:127 1.27666e-06
101 *99:43 *359:136 7.98366e-06
102 *99:43 *359:145 3.37905e-06
103 *99:43 *359:207 4.04471e-06
104 *99:43 *360:25 0
105 *99:43 *360:87 1.64173e-05
106 *99:43 *361:96 6.3924e-06
107 *99:43 *361:109 2.23871e-06
108 *99:53 dest_out[0] 1.05344e-05
109 *99:53 *464:A 0
110 *99:53 *521:A 8.21988e-06
111 *99:53 *102:32 3.48799e-05
112 *99:53 *248:8 1.97811e-07
113 *99:57 halt_out 2.19343e-06
114 *99:57 *640:A1 0
115 *99:57 *718:RN 1.58449e-05
116 *99:57 *102:32 4.70437e-05
117 *99:70 *640:A1 1.0469e-05
118 *99:70 *640:A2 7.72537e-06
119 *99:70 *298:21 3.90891e-05
120 *99:83 *102:115 0
121 *99:83 *102:124 0
122 *99:83 *298:21 6.86638e-05
123 *99:92 *298:21 7.87811e-06
124 *99:99 *658:A 0
125 *99:99 *658:S 3.58094e-06
126 *99:99 *298:21 3.57737e-05
127 *99:108 *658:A 0
128 *99:117 *567:A 3.11333e-05
129 *99:117 *658:A 2.83077e-06
130 *99:117 *659:A 1.18227e-05
131 *695:D *99:83 9.77674e-06
132 *697:D *99:43 1.0794e-06
133 *697:D *99:53 1.09235e-05
134 *698:D *99:83 0
135 *698:D *99:99 3.65322e-06
136 *710:D *710:CK 3.65322e-06
137 *713:D *700:CK 0
138 *716:D *99:99 1.64551e-05
139 *717:D *99:108 7.02617e-06
140 *718:D *99:70 4.52914e-05
141 *15:14 *705:CK 5.01336e-06
*RES
1 *393:Z *99:6 5.92857 
2 *99:6 *705:CK 37.1429 
3 *99:6 *99:31 21.5 
4 *99:31 *99:43 48.9286 
5 *99:43 *99:53 12.8929 
6 *99:53 *99:57 27.6429 
7 *99:57 *718:CK 13.6429 
8 *99:57 *99:70 15.25 
9 *99:70 *696:CK 5 
10 *99:70 *99:83 19.7143 
11 *99:83 *695:CK 5 
12 *99:83 *99:92 4.67857 
13 *99:92 *698:CK 5 
14 *99:92 *99:99 26.75 
15 *99:99 *716:CK 5 
16 *99:99 *99:108 11.8571 
17 *99:108 *717:CK 5 
18 *99:108 *99:117 9.17858 
19 *99:117 *99:121 9.32143 
20 *99:121 *708:CK 14.75 
21 *99:121 *709:CK 22.3571 
22 *99:117 *710:CK 7.25 
23 *99:53 *697:CK 5 
24 *99:43 *700:CK 45.3929 
25 *99:31 *767:A 10 
*END

*D_NET *98 0.00522983
*CONN
*I *721:CK I *D DFFR_X1
*I *722:CK I *D DFFR_X1
*I *707:CK I *D DFFR_X1
*I *706:CK I *D DFFR_X1
*I *715:CK I *D DFFR_X1
*I *720:CK I *D DFFR_X1
*I *719:CK I *D DFFR_X1
*I *714:CK I *D DFFR_X1
*I *704:CK I *D DFFR_X1
*I *701:CK I *D DFFR_X1
*I *702:CK I *D DFFR_X1
*I *699:CK I *D DFFR_X1
*I *703:CK I *D DFFR_X1
*I *713:CK I *D DFFR_X1
*I *711:CK I *D DFFR_X1
*I *712:CK I *D DFFR_X1
*I *392:Z O *D CLKBUF_X3
*CAP
1 *721:CK 5.00693e-05
2 *722:CK 0
3 *707:CK 0
4 *706:CK 0
5 *715:CK 0
6 *720:CK 1.80365e-05
7 *719:CK 0
8 *714:CK 2.07705e-05
9 *704:CK 5.35995e-05
10 *701:CK 0
11 *702:CK 0
12 *699:CK 0
13 *703:CK 0.000167782
14 *713:CK 0.000163444
15 *711:CK 4.99386e-05
16 *712:CK 2.31936e-05
17 *392:Z 0
18 *98:168 0.000140791
19 *98:155 0.000209657
20 *98:144 0.000185163
21 *98:137 0.000195392
22 *98:122 0.000255976
23 *98:58 0.000452319
24 *98:56 0.000235378
25 *98:52 0.000180158
26 *98:50 0.00018208
27 *98:35 0.000266662
28 *98:22 0.000268482
29 *98:18 0.000166104
30 *98:12 0.000214226
31 *98:4 0.00026884
32 *703:CK *404:A 0
33 *703:CK *497:A 9.62051e-07
34 *703:CK *646:A 0
35 *703:CK *693:A 0
36 *703:CK *700:D 3.16298e-05
37 *703:CK *700:RN 1.0794e-06
38 *703:CK *769:A 4.91493e-06
39 *703:CK *102:20 0
40 *703:CK *299:20 0
41 *703:CK *299:35 0
42 *704:CK *712:RN 1.18547e-06
43 *704:CK *102:208 0
44 *711:CK *712:RN 1.91667e-07
45 *711:CK *102:10 2.22126e-06
46 *711:CK *102:14 5.66767e-06
47 *711:CK *376:12 0.000145723
48 *712:CK *298:87 2.14856e-06
49 *713:CK alu_result_out[0] 6.62796e-06
50 *713:CK alu_result_out[2] 6.89701e-06
51 *713:CK pc_out[5] 6.35891e-06
52 *713:CK *102:20 0
53 *713:CK *102:26 8.19001e-06
54 *713:CK *102:28 3.01738e-06
55 *714:CK *379:8 6.92212e-05
56 *720:CK *441:C2 1.18589e-06
57 *720:CK *128:26 2.83315e-05
58 *98:12 alu_result_out[4] 3.51992e-06
59 *98:12 *492:A2 2.04127e-06
60 *98:12 *511:S 5.29747e-06
61 *98:12 *588:A 3.09143e-06
62 *98:12 *657:S 1.37557e-05
63 *98:12 *682:A 6.47723e-05
64 *98:12 *102:244 0
65 *98:12 *133:18 1.62382e-06
66 *98:12 *380:42 0
67 *98:18 *544:B2 5.47929e-05
68 *98:18 *656:A 3.28688e-05
69 *98:18 *657:S 7.62806e-06
70 *98:18 *367:25 0
71 *98:18 *379:8 1.2203e-05
72 *98:22 *647:A 2.87248e-06
73 *98:22 *656:B 7.72537e-06
74 *98:22 *657:S 0
75 *98:22 *719:RN 0
76 *98:22 *298:87 0
77 *98:22 *341:23 2.77545e-05
78 *98:35 *712:RN 1.24611e-05
79 *98:35 *298:87 0
80 *98:50 *702:D 5.01336e-06
81 *98:50 *712:RN 3.68841e-05
82 *98:50 *102:8 0
83 *98:50 *376:12 6.78878e-05
84 *98:52 *702:D 1.30395e-05
85 *98:52 *362:10 0
86 *98:56 pc_out[6] 0
87 *98:56 *407:A 0
88 *98:56 *362:10 0
89 *98:58 pc_out[4] 2.16094e-05
90 *98:58 pc_out[6] 0
91 *98:58 *407:A 0
92 *98:58 *526:A2 0
93 *98:58 *102:20 0
94 *98:122 *392:A 2.23871e-06
95 *98:122 *421:A 1.67367e-05
96 *98:122 *441:C2 1.42313e-05
97 *98:122 *512:A 2.25089e-06
98 *98:122 *547:A 3.34754e-05
99 *98:122 *122:16 7.66675e-07
100 *98:122 *124:23 4.98316e-05
101 *98:122 *182:65 0
102 *98:122 *385:16 7.75465e-06
103 *98:137 *441:C2 8.59171e-06
104 *98:137 *720:RN 6.77275e-05
105 *98:137 *343:20 0
106 *98:137 *385:16 9.86543e-06
107 *98:144 *514:S 0
108 *98:144 *649:B 0
109 *98:144 *386:16 0
110 *98:155 *514:S 0
111 *98:155 *650:B 2.23871e-06
112 *98:155 *370:70 0
113 *98:155 *386:16 0
114 *98:168 *370:70 0
115 *98:168 *386:14 0
116 *396:A *98:50 0
117 *396:A *98:52 0
118 *428:A *98:12 0.000131684
119 *497:B1 *703:CK 0
120 *699:D *98:56 9.57501e-05
121 *699:RN *98:56 1.66752e-05
122 *701:D *98:50 0
123 *704:D *704:CK 0
124 *704:D *98:22 0
125 *707:D *98:168 0
126 *712:D *712:CK 9.27438e-06
127 *712:D *98:35 5.16069e-06
128 *713:D *713:CK 0.000107281
129 *714:D *98:22 0
130 *715:D *98:137 2.80734e-05
131 *715:D *98:144 3.65322e-06
132 *719:D *98:12 4.21607e-06
133 *720:D *720:CK 9.08971e-06
134 *3:12 *714:CK 0
135 *3:12 *98:18 0
136 *20:22 *98:122 0
137 *24:12 *98:144 6.06867e-06
138 *24:20 *98:137 2.57357e-05
139 *24:20 *98:144 1.27666e-06
140 *69:31 *98:56 1.30978e-05
141 *78:14 *721:CK 6.66237e-05
142 *78:14 *98:144 0
143 *78:14 *98:155 0
144 *78:14 *98:168 0
*RES
1 *392:Z *98:4 5 
2 *98:4 *98:12 29.8929 
3 *98:12 *98:18 12.3929 
4 *98:18 *98:22 14.75 
5 *98:22 *712:CK 8.03572 
6 *98:22 *98:35 15.75 
7 *98:35 *711:CK 17.7143 
8 *98:35 *98:50 18.8929 
9 *98:50 *98:52 6.75 
10 *98:52 *98:56 20.8571 
11 *98:56 *98:58 13.8214 
12 *98:58 *713:CK 30.6072 
13 *98:58 *703:CK 26.75 
14 *98:56 *699:CK 10 
15 *98:52 *702:CK 5 
16 *98:50 *701:CK 5 
17 *98:22 *704:CK 11.8929 
18 *98:18 *714:CK 13.6429 
19 *98:12 *719:CK 5 
20 *98:4 *98:122 17.75 
21 *98:122 *720:CK 12.75 
22 *98:122 *98:137 21.6786 
23 *98:137 *715:CK 5 
24 *98:137 *98:144 6.75 
25 *98:144 *706:CK 5 
26 *98:144 *98:155 11.4286 
27 *98:155 *707:CK 5 
28 *98:155 *98:168 19.4286 
29 *98:168 *722:CK 5 
30 *98:168 *721:CK 11.75 
*END

*D_NET *187 0.000308728
*CONN
*P dest_out[0] O
*I *486:Z O *D BUF_X1
*CAP
1 dest_out[0] 0.000127066
2 *486:Z 0.000127066
3 dest_out[0] *248:8 3.70328e-06
4 halt_out dest_out[0] 4.03593e-05
5 pc_out[1] dest_out[0] 0
6 *99:53 dest_out[0] 1.05344e-05
*RES
1 *486:Z dest_out[0] 26.7607 
*END

*D_NET *184 0.000443839
*CONN
*P dest_out[1] O
*I *483:Z O *D BUF_X1
*CAP
1 dest_out[1] 0.00013434
2 *483:Z 0.00013434
3 dest_out[1] *414:A 0.000104527
4 dest_out[1] *483:A 1.62647e-06
5 pc_out[3] dest_out[1] 5.10687e-05
6 *698:D dest_out[1] 1.08376e-05
7 *1:157 dest_out[1] 7.10056e-06
8 *102:132 dest_out[1] 0
*RES
1 *483:Z dest_out[1] 34.8107 
*END

*D_NET *169 0.000313134
*CONN
*P dest_out[2] O
*I *467:Z O *D BUF_X1
*CAP
1 dest_out[2] 0.000142611
2 *467:Z 0.000142611
3 dest_out[2] *299:20 4.65615e-06
4 dest_out[3] dest_out[2] 0
5 pc_out[2] dest_out[2] 0
6 *700:CK dest_out[2] 2.32566e-05
*RES
1 *467:Z dest_out[2] 26.975 
*END

*D_NET *167 0.000175963
*CONN
*P dest_out[3] O
*I *465:Z O *D BUF_X1
*CAP
1 dest_out[3] 6.7802e-05
2 *465:Z 6.7802e-05
3 dest_out[3] dest_out[2] 0
4 reg_write_out dest_out[3] 4.03593e-05
5 *102:28 dest_out[3] 0
*RES
1 *465:Z dest_out[3] 24.7321 
*END

*D_NET *166 0.000161427
*CONN
*P halt_out O
*I *464:Z O *D BUF_X1
*CAP
1 halt_out 5.9437e-05
2 *464:Z 5.9437e-05
3 halt_out dest_out[0] 4.03593e-05
4 *99:57 halt_out 2.19343e-06
*RES
1 *464:Z halt_out 24.0179 
*END

*D_NET *375 7.90879e-05
*CONN
*I *599:A I *D INV_X1
*I *694:Z O *D BUF_X1
*CAP
1 *599:A 3.89512e-05
2 *694:Z 3.89512e-05
3 *69:10 *599:A 1.18547e-06
*RES
1 *694:Z *599:A 14.2143 
*END

*D_NET *349 5.34663e-05
*CONN
*I *486:A I *D BUF_X1
*I *581:ZN O *D NOR2_X1
*CAP
1 *486:A 2.26623e-05
2 *581:ZN 2.26623e-05
3 *486:A *521:A 2.23415e-06
4 *486:A *581:A2 3.5108e-06
5 *581:A1 *486:A 2.39679e-06
6 *99:43 *486:A 0
*RES
1 *581:ZN *486:A 12.6786 
*END

*D_NET *350 0.000456123
*CONN
*I *483:A I *D BUF_X1
*I *579:ZN O *D NOR2_X1
*CAP
1 *483:A 0.000127303
2 *579:ZN 0.000127303
3 *483:A *414:A 0
4 *483:A *433:A 2.94455e-05
5 *483:A *361:21 0
6 *483:A *361:36 1.63527e-06
7 dest_out[1] *483:A 1.62647e-06
8 *409:A2 *483:A 0
9 *522:B1 *483:A 0
10 *522:B2 *483:A 0
11 *1:157 *483:A 1.39839e-06
12 *102:132 *483:A 2.14856e-06
13 *111:8 *483:A 4.24381e-05
14 *111:43 *483:A 5.46453e-05
15 *111:54 *483:A 6.81795e-05
*RES
1 *579:ZN *483:A 35.25 
*END

*D_NET *351 0.00131137
*CONN
*I *412:A1 I *D AND2_X1
*I *489:C2 I *D OAI221_X1
*I *467:A I *D BUF_X1
*I *641:A1 I *D NOR3_X2
*I *410:ZN O *D INV_X1
*CAP
1 *412:A1 0.000140161
2 *489:C2 0.000158344
3 *467:A 0
4 *641:A1 2.92457e-05
5 *410:ZN 3.97778e-05
6 *351:29 0.000298505
7 *351:6 6.90235e-05
8 *412:A1 *532:B1 7.19036e-06
9 *412:A1 *358:148 4.16464e-05
10 *489:C2 *448:A 0
11 *489:C2 *488:A1 2.52965e-06
12 *489:C2 *537:A1 2.88913e-05
13 *489:C2 *358:94 0
14 *489:C2 *358:109 3.09143e-06
15 *489:C2 *359:70 3.48838e-06
16 *489:C2 *359:92 1.00295e-05
17 *489:C2 *359:105 7.94852e-06
18 *351:6 *424:A 0
19 *410:A *489:C2 3.9733e-06
20 *412:A2 *412:A1 9.77674e-06
21 *489:A *489:C2 1.26998e-05
22 *489:B2 *489:C2 4.04712e-06
23 *498:A1 *412:A1 1.0082e-05
24 *531:C2 *412:A1 2.6022e-06
25 *531:C2 *489:C2 2.80129e-05
26 *532:A *412:A1 1.68643e-06
27 *532:B2 *412:A1 0.000104431
28 *533:B1 *412:A1 5.72955e-06
29 *533:B2 *412:A1 3.76691e-05
30 *571:A2 *412:A1 1.07633e-05
31 *572:B2 *412:A1 3.47903e-06
32 *639:A2 *489:C2 1.49555e-05
33 *641:A2 *351:6 0
34 *655:S *351:6 6.48216e-07
35 *700:CK *641:A1 2.12015e-05
36 *101:68 *412:A1 3.01743e-06
37 *101:68 *489:C2 8.43215e-07
38 *101:77 *412:A1 2.15524e-05
39 *195:19 *489:C2 7.0096e-06
40 *216:8 *412:A1 1.29249e-05
41 *216:8 *489:C2 2.11407e-05
42 *216:12 *412:A1 1.22438e-05
43 *298:41 *641:A1 0.000121008
*RES
1 *410:ZN *351:6 8.25 
2 *351:6 *641:A1 21.3571 
3 *351:6 *467:A 5 
4 *410:ZN *351:29 10 
5 *351:29 *489:C2 29.1786 
6 *351:29 *412:A1 39.6786 
*END

*D_NET *352 0.000169173
*CONN
*I *641:A3 I *D NOR3_X2
*I *465:A I *D BUF_X1
*I *578:ZN O *D INV_X1
*CAP
1 *641:A3 4.95799e-06
2 *465:A 5.1306e-05
3 *578:ZN 9.42176e-06
4 *352:8 6.56857e-05
5 *465:A *398:A 1.08561e-05
6 *700:CK *641:A3 2.71623e-06
7 *700:CK *352:8 6.49787e-06
8 *298:12 *352:8 1.88334e-06
9 *298:41 *641:A3 6.31115e-06
10 *298:41 *352:8 9.53714e-06
*RES
1 *578:ZN *352:8 11.6071 
2 *352:8 *465:A 15.25 
3 *352:8 *641:A3 10.9286 
*END

*D_NET *353 0.000163982
*CONN
*I *581:A2 I *D NOR2_X1
*I *464:A I *D BUF_X1
*I *580:ZN O *D INV_X1
*CAP
1 *581:A2 2.40145e-05
2 *464:A 5.49145e-05
3 *580:ZN 0
4 *353:4 7.89289e-05
5 *486:A *581:A2 3.5108e-06
6 *580:A *581:A2 2.39679e-06
7 *581:A1 *581:A2 2.16072e-07
8 *697:D *464:A 0
9 *697:D *581:A2 0
10 *99:53 *464:A 0
*RES
1 *580:ZN *353:4 5 
2 *353:4 *464:A 10.3571 
3 *353:4 *581:A2 8.17857 
*END

*D_NET *358 0.0069752
*CONN
*I *397:A1 I *D NAND2_X1
*I *547:S I *D MUX2_X1
*I *507:A1 I *D NAND2_X1
*I *449:S I *D MUX2_X1
*I *600:S I *D MUX2_X1
*I *542:S I *D MUX2_X1
*I *479:A1 I *D NAND2_X1
*I *411:A1 I *D NOR2_X1
*I *495:A I *D INV_X1
*I *488:A1 I *D OR2_X4
*I *415:A1 I *D OR2_X1
*I *448:A I *D BUF_X1
*I *408:A1 I *D NAND2_X1
*I *422:S I *D MUX2_X1
*I *432:A1 I *D NOR2_X1
*I *435:A1 I *D AND2_X1
*I *678:A I *D HA_X1
*I *517:A I *D MUX2_X1
*I *695:Q O *D DFFR_X1
*CAP
1 *397:A1 2.59914e-05
2 *547:S 0.000102944
3 *507:A1 8.63971e-06
4 *449:S 4.62305e-06
5 *600:S 0.000124594
6 *542:S 0.000250326
7 *479:A1 0.000116683
8 *411:A1 6.09339e-06
9 *495:A 0
10 *488:A1 4.58658e-06
11 *415:A1 8.06567e-05
12 *448:A 9.6338e-05
13 *408:A1 1.74615e-05
14 *422:S 0
15 *432:A1 7.60456e-05
16 *435:A1 0
17 *678:A 3.72996e-05
18 *517:A 2.56546e-05
19 *695:Q 2.0615e-05
20 *358:229 0.000188541
21 *358:205 0.000197618
22 *358:203 0.000335845
23 *358:199 0.000265344
24 *358:159 0.000417716
25 *358:148 0.000185731
26 *358:142 0.000215895
27 *358:109 0.000108916
28 *358:96 0.000128274
29 *358:94 0.00012137
30 *358:88 0.000212119
31 *358:75 0.000105414
32 *358:66 5.23778e-05
33 *358:49 0.000175163
34 *358:40 0.00012586
35 *358:21 0.000116729
36 *358:8 7.36166e-05
37 *408:A1 *408:A2 3.28578e-06
38 *408:A1 *359:147 3.28571e-07
39 *415:A1 *415:A2 7.19036e-06
40 *415:A1 *537:A1 3.23723e-07
41 *432:A1 *434:B2 3.83603e-05
42 *432:A1 *361:36 9.15042e-05
43 *448:A *438:A 9.06186e-06
44 *448:A *360:38 0
45 *479:A1 *539:B2 0
46 *517:A *577:A1 0
47 *517:A *383:31 0
48 *542:S *535:A1 5.05929e-06
49 *542:S *542:A 2.75346e-06
50 *542:S *367:25 6.65094e-05
51 *547:S *504:A1 6.82202e-07
52 *547:S *547:A 2.75346e-06
53 *547:S *593:A1 7.72537e-06
54 *547:S *648:A 2.9716e-06
55 *547:S *368:8 2.46504e-06
56 *547:S *368:38 6.63599e-05
57 *547:S *368:51 1.2203e-05
58 *600:S *371:28 1.76077e-05
59 *600:S *372:26 5.30153e-06
60 *678:A *577:A1 2.65894e-05
61 *678:A *359:17 2.61812e-06
62 *358:8 *359:8 2.77917e-07
63 *358:21 *359:8 3.53824e-06
64 *358:21 *359:17 6.80417e-07
65 *358:40 *515:A 2.39679e-06
66 *358:40 *359:17 1.1144e-06
67 *358:40 *359:21 2.55787e-06
68 *358:40 *359:55 1.79544e-06
69 *358:49 *515:A 4.79358e-06
70 *358:49 *361:38 6.21633e-06
71 *358:49 *361:256 3.24108e-07
72 *358:66 *361:256 2.55787e-06
73 *358:94 *487:B1 7.19036e-06
74 *358:94 *360:38 9.03002e-06
75 *358:94 *360:51 0.000103223
76 *358:96 *360:38 0
77 *358:109 *398:A 0
78 *358:148 *360:51 0
79 *358:148 *361:126 1.68643e-06
80 *358:199 *361:126 6.56007e-06
81 *358:199 *361:132 6.13123e-06
82 *358:203 *450:A1 3.09411e-06
83 *358:203 *451:A1 1.62273e-05
84 *358:203 *361:132 5.72598e-06
85 *358:229 *648:A 6.47394e-07
86 *397:A2 *397:A1 2.75346e-06
87 *397:A2 *358:88 2.08098e-06
88 *397:A2 *358:142 3.1154e-05
89 *397:A2 *358:199 3.95661e-05
90 *403:A2 *358:203 0
91 *409:A2 *408:A1 2.89018e-05
92 *409:A2 *358:88 5.01473e-05
93 *412:A1 *358:148 4.16464e-05
94 *412:A2 *358:148 7.18184e-06
95 *419:A2 *397:A1 6.0887e-06
96 *419:A2 *358:203 1.27666e-06
97 *436:A2 *432:A1 1.39858e-05
98 *436:A2 *358:66 2.84765e-06
99 *449:A *449:S 7.19036e-06
100 *453:A *358:203 1.67775e-05
101 *466:A2 *358:205 0.000116574
102 *466:B1 *449:S 7.72792e-06
103 *479:A2 *479:A1 6.76267e-05
104 *479:A2 *542:S 3.58094e-07
105 *479:A2 *358:148 1.61249e-06
106 *484:B2 *542:S 2.95559e-05
107 *489:B1 *358:94 1.86809e-06
108 *489:B1 *358:109 0
109 *489:B2 *358:94 3.51536e-06
110 *489:C2 *448:A 0
111 *489:C2 *488:A1 2.52965e-06
112 *489:C2 *358:94 0
113 *489:C2 *358:109 3.09143e-06
114 *490:B2 *542:S 3.05523e-06
115 *491:A1 *479:A1 4.33476e-05
116 *491:A2 *542:S 2.30539e-05
117 *491:A3 *542:S 3.56659e-06
118 *496:A1 *415:A1 3.46878e-05
119 *497:B1 *479:A1 4.44528e-06
120 *498:A1 *415:A1 9.55318e-06
121 *498:A2 *479:A1 0
122 *499:A2 *479:A1 1.88334e-06
123 *507:A2 *547:S 0.000100244
124 *507:A2 *358:229 2.87711e-05
125 *515:B1 *358:49 1.69265e-05
126 *517:S *517:A 1.68643e-06
127 *517:S *358:8 1.72405e-05
128 *519:A1 *517:A 7.19036e-06
129 *532:B2 *358:148 2.80517e-05
130 *536:A2 *542:S 1.25215e-05
131 *568:B *542:S 5.00811e-06
132 *579:A1 *408:A1 1.0038e-05
133 *579:A1 *358:66 2.39679e-06
134 *579:A1 *358:75 5.19647e-05
135 *579:A1 *358:88 4.16195e-06
136 *580:A *678:A 1.51469e-05
137 *581:A1 *358:40 1.72426e-05
138 *595:C2 *358:203 0
139 *595:C2 *358:229 0
140 *601:A2 *600:S 0
141 *601:A2 *358:205 0
142 *601:B1 *600:S 9.29568e-05
143 *601:B1 *358:205 8.34049e-06
144 *601:B2 *600:S 1.01993e-05
145 *602:A *600:S 5.38515e-05
146 *604:A3 *542:S 3.82563e-06
147 *639:A2 *415:A1 1.90192e-05
148 *639:A2 *448:A 5.75863e-06
149 *639:A4 *448:A 1.56471e-05
150 *676:A *479:A1 2.39679e-06
151 *676:B *479:A1 1.52083e-06
152 *676:B *542:S 7.04443e-07
153 *680:B *542:S 1.4495e-06
154 *695:D *358:8 1.02238e-05
155 *698:D *432:A1 2.24783e-06
156 *705:CK *358:203 0
157 *1:14 *432:A1 7.9624e-06
158 *1:18 *432:A1 1.21774e-06
159 *1:18 *517:A 2.75346e-06
160 *1:22 *358:21 3.01743e-06
161 *1:22 *358:40 1.67051e-05
162 *1:40 *415:A1 0.000104501
163 *1:74 *479:A1 1.36734e-05
164 *1:74 *542:S 0
165 *14:10 *600:S 0
166 *30:18 *547:S 1.14231e-05
167 *99:43 *358:40 0
168 *99:43 *358:49 0
169 *101:8 *358:88 2.0725e-06
170 *101:45 *358:88 7.47756e-06
171 *101:49 *358:94 0.000110413
172 *101:68 *358:148 2.44587e-05
173 *101:92 *411:A1 7.72537e-06
174 *105:8 *358:148 1.50276e-05
175 *105:12 *358:148 2.82591e-05
176 *109:18 *358:205 2.94435e-05
177 *109:18 *358:229 5.24354e-05
178 *111:43 *432:A1 2.72417e-06
179 *111:54 *432:A1 1.61002e-06
180 *111:71 *358:66 2.39679e-06
181 *111:71 *358:75 5.43615e-05
182 *112:8 *358:199 0
183 *112:12 *358:88 0.000115206
184 *112:12 *358:142 3.74027e-05
185 *112:65 *415:A1 4.8796e-05
186 *112:65 *358:142 0.000107663
187 *112:65 *358:148 4.33502e-05
188 *112:89 *358:199 0
189 *117:10 *542:S 1.3198e-05
190 *117:10 *358:148 8.58678e-06
191 *117:10 *358:159 2.24125e-05
192 *120:32 *415:A1 1.68643e-06
193 *124:8 *358:203 0
194 *124:21 *358:203 0
195 *125:10 *507:A1 0
196 *128:10 *358:159 0
197 *138:12 *432:A1 1.48912e-05
198 *140:8 *358:49 6.44217e-06
199 *140:10 *432:A1 0
200 *140:10 *358:66 0
201 *141:12 *358:49 1.92897e-06
202 *141:12 *358:66 8.2465e-06
203 *141:12 *358:88 3.75827e-05
204 *153:6 *358:203 5.39365e-06
205 *153:21 *358:203 9.89788e-06
206 *154:34 *358:203 0
207 *154:34 *358:229 2.43763e-06
208 *157:18 *358:229 0
209 *157:68 *542:S 3.64772e-05
210 *182:8 *358:203 0
211 *182:65 *542:S 2.75891e-05
212 *195:19 *415:A1 2.72171e-06
213 *196:8 *415:A1 4.32144e-07
214 *209:8 *358:8 1.2203e-05
215 *209:8 *358:21 8.14262e-05
216 *219:14 *411:A1 0
217 *219:14 *358:159 1.22133e-05
218 *220:31 *547:S 3.82527e-05
219 *220:41 *547:S 0
220 *223:8 *479:A1 5.26761e-06
221 *223:16 *542:S 1.91498e-06
222 *236:8 *600:S 0
223 *333:8 *542:S 4.21607e-06
224 *333:19 *542:S 2.10235e-05
225 *340:16 *479:A1 0
226 *348:14 *358:229 7.79339e-06
*RES
1 *695:Q *358:8 12.9643 
2 *358:8 *517:A 12.6786 
3 *358:8 *358:21 5 
4 *358:21 *678:A 15.4286 
5 *358:21 *358:40 11.0714 
6 *358:40 *435:A1 5 
7 *358:40 *358:49 13.25 
8 *358:49 *432:A1 20.7857 
9 *358:49 *358:66 8.17857 
10 *358:66 *422:S 5 
11 *358:66 *358:75 10.25 
12 *358:75 *408:A1 12.3571 
13 *358:75 *358:88 10.4286 
14 *358:88 *358:94 21.8571 
15 *358:94 *358:96 1.25 
16 *358:96 *448:A 15.1786 
17 *358:96 *358:109 3.03572 
18 *358:109 *415:A1 27.1071 
19 *358:109 *488:A1 5.75 
20 *358:94 *495:A 5 
21 *358:88 *358:142 12.7143 
22 *358:142 *358:148 22.8929 
23 *358:148 *411:A1 10.75 
24 *358:148 *358:159 6.35715 
25 *358:159 *479:A1 33.9643 
26 *358:159 *542:S 49.5 
27 *358:142 *358:199 6.25 
28 *358:199 *358:203 24.75 
29 *358:203 *358:205 9.07143 
30 *358:205 *600:S 25.3214 
31 *358:205 *449:S 10.75 
32 *358:203 *358:229 9.07143 
33 *358:229 *507:A1 10.75 
34 *358:229 *547:S 24.5714 
35 *358:199 *397:A1 8.78572 
*END

*D_NET *359 0.00465877
*CONN
*I *552:A2 I *D AND3_X1
*I *450:A1 I *D NAND2_X2
*I *480:A1 I *D OR2_X2
*I *553:A1 I *D NOR2_X1
*I *626:A1 I *D AOI22_X1
*I *618:C2 I *D AOI221_X1
*I *408:A2 I *D NAND2_X1
*I *395:A I *D INV_X1
*I *423:A2 I *D NOR3_X2
*I *530:A1 I *D NOR2_X2
*I *570:A I *D XOR2_X1
*I *415:A2 I *D OR2_X1
*I *537:A1 I *D AND2_X1
*I *496:A2 I *D NOR2_X1
*I *438:A I *D BUF_X1
*I *515:B2 I *D OAI21_X1
*I *434:B2 I *D OAI21_X1
*I *436:A1 I *D AOI222_X4
*I *516:A1 I *D NAND2_X1
*I *678:B I *D HA_X1
*I *696:Q O *D DFFR_X1
*CAP
1 *552:A2 5.6085e-06
2 *450:A1 6.31192e-05
3 *480:A1 5.55284e-06
4 *553:A1 4.24453e-05
5 *626:A1 0
6 *618:C2 0.000104431
7 *408:A2 4.07942e-05
8 *395:A 0
9 *423:A2 0
10 *530:A1 2.77352e-05
11 *570:A 3.82879e-05
12 *415:A2 5.17015e-06
13 *537:A1 8.12154e-05
14 *496:A2 6.90492e-06
15 *438:A 4.73148e-05
16 *515:B2 0
17 *434:B2 4.25685e-05
18 *436:A1 0
19 *516:A1 0
20 *678:B 0
21 *696:Q 2.82727e-05
22 *359:211 8.08876e-05
23 *359:207 6.86773e-05
24 *359:166 0.0001742
25 *359:162 0.000137876
26 *359:147 0.000107975
27 *359:145 0.000131288
28 *359:136 7.7325e-05
29 *359:127 0.000132633
30 *359:105 7.9488e-05
31 *359:92 3.66598e-05
32 *359:72 8.81203e-05
33 *359:70 7.0087e-05
34 *359:59 0.000123344
35 *359:55 0.000189256
36 *359:36 0.000107046
37 *359:23 7.69039e-05
38 *359:21 4.61623e-05
39 *359:17 0.000128037
40 *359:8 5.15099e-05
41 *408:A2 *360:87 1.07633e-05
42 *408:A2 *361:264 3.90891e-05
43 *438:A *360:25 1.7898e-05
44 *438:A *360:38 3.09143e-06
45 *450:A1 *541:A1 4.43868e-06
46 *450:A1 *360:79 5.64879e-06
47 *450:A1 *360:137 4.5899e-05
48 *480:A1 *360:66 7.72792e-06
49 *530:A1 *530:A2 7.16188e-07
50 *537:A1 *360:167 2.88181e-05
51 *552:A2 *552:A3 2.39679e-06
52 *553:A1 *554:A1 8.43215e-07
53 *553:A1 *361:264 6.13956e-06
54 *570:A *530:A2 4.8057e-06
55 *618:C2 *616:A1 3.95726e-05
56 *618:C2 *616:A2 3.25236e-05
57 *618:C2 *658:B 5.20238e-07
58 *618:C2 *373:47 6.68482e-05
59 *359:8 *518:A2 4.7972e-06
60 *359:17 *518:A2 1.11198e-05
61 *359:21 *577:A1 1.28122e-06
62 *359:21 *374:6 1.1025e-05
63 *359:36 *577:A1 8.43215e-07
64 *359:36 *361:42 1.40196e-06
65 *359:36 *361:50 5.63341e-06
66 *359:55 *518:A2 1.90574e-06
67 *359:55 *374:36 7.9406e-06
68 *359:59 *374:36 1.55241e-05
69 *359:70 *374:36 2.7671e-05
70 *359:127 *523:A2 5.36507e-05
71 *359:127 *360:38 0.000101359
72 *359:127 *361:96 4.38852e-05
73 *359:127 *361:109 1.32323e-05
74 *359:147 *360:87 5.73442e-05
75 *359:162 *361:264 5.41504e-06
76 *359:166 *360:87 1.0495e-05
77 *359:166 *373:43 0.000103121
78 *359:166 *373:47 6.11333e-05
79 *359:166 *383:41 2.2921e-05
80 *359:207 *360:87 4.42084e-06
81 *359:211 *360:79 4.43868e-06
82 *403:A2 *450:A1 1.40196e-06
83 *408:A1 *408:A2 3.28578e-06
84 *408:A1 *359:147 3.28571e-07
85 *409:A2 *408:A2 0
86 *410:A *359:105 3.0203e-05
87 *415:A1 *415:A2 7.19036e-06
88 *415:A1 *537:A1 3.23723e-07
89 *423:A1 *359:127 2.75346e-06
90 *423:A1 *359:136 1.92742e-05
91 *423:A3 *359:127 7.72792e-06
92 *432:A1 *434:B2 3.83603e-05
93 *436:A2 *434:B2 1.10231e-05
94 *436:A2 *359:36 2.75346e-06
95 *436:B1 *359:36 6.85774e-07
96 *436:B2 *434:B2 2.10761e-06
97 *436:B2 *359:36 0
98 *448:A *438:A 9.06186e-06
99 *466:B1 *480:A1 2.52965e-06
100 *466:B1 *552:A2 1.68643e-06
101 *466:B1 *359:207 5.60505e-05
102 *489:C2 *537:A1 2.88913e-05
103 *489:C2 *359:70 3.48838e-06
104 *489:C2 *359:92 1.00295e-05
105 *489:C2 *359:105 7.94852e-06
106 *496:A1 *496:A2 2.52965e-06
107 *496:A1 *537:A1 1.87637e-06
108 *515:B1 *359:21 8.43215e-07
109 *522:B1 *408:A2 0
110 *523:A3 *359:55 4.68823e-05
111 *554:A2 *553:A1 7.62251e-06
112 *555:B1 *359:211 4.24423e-05
113 *556:C2 *552:A2 2.39679e-06
114 *561:A1 *618:C2 2.11368e-05
115 *571:A2 *530:A1 0
116 *577:A2 *359:8 9.5153e-06
117 *579:A1 *408:A2 4.29713e-06
118 *579:A1 *359:147 5.10087e-06
119 *580:A *359:21 3.83783e-05
120 *580:A *359:23 6.56185e-06
121 *580:A *359:36 1.97916e-06
122 *581:A1 *359:55 2.78915e-05
123 *581:A1 *359:59 1.86937e-06
124 *581:A1 *359:70 2.90224e-06
125 *590:A2 *359:166 2.72417e-06
126 *614:A2 *450:A1 3.74027e-05
127 *614:A2 *359:166 1.36905e-07
128 *614:A2 *359:211 5.46432e-05
129 *617:A *618:C2 3.19164e-07
130 *617:B1 *618:C2 4.24402e-05
131 *617:B2 *618:C2 1.28195e-05
132 *618:A *618:C2 2.39679e-06
133 *618:B2 *618:C2 1.30597e-05
134 *618:B2 *359:166 1.88334e-06
135 *618:C1 *359:166 6.59614e-07
136 *627:A1 *618:C2 7.19036e-06
137 *627:A2 *359:166 5.19992e-05
138 *639:A1 *359:70 1.72063e-05
139 *639:A1 *359:92 4.95373e-05
140 *639:A1 *359:105 1.2203e-05
141 *639:A2 *496:A2 1.39839e-06
142 *639:A2 *537:A1 3.33445e-06
143 *678:A *359:17 2.61812e-06
144 *698:D *434:B2 0
145 *1:18 *359:36 6.38784e-06
146 *38:8 *359:55 1.52269e-05
147 *99:43 *359:127 1.27666e-06
148 *99:43 *359:136 7.98366e-06
149 *99:43 *359:145 3.37905e-06
150 *99:43 *359:207 4.04471e-06
151 *101:23 *408:A2 0
152 *101:23 *553:A1 0
153 *101:23 *359:162 0
154 *101:49 *359:127 1.01265e-05
155 *101:68 *537:A1 2.39679e-06
156 *102:132 *618:C2 4.07103e-05
157 *105:25 *552:A2 4.97191e-06
158 *105:25 *359:136 3.11453e-05
159 *105:25 *359:145 1.53913e-05
160 *105:25 *359:207 5.96952e-05
161 *111:14 *434:B2 2.39679e-06
162 *111:71 *408:A2 0
163 *111:71 *359:147 0.000117893
164 *111:71 *359:207 7.84414e-06
165 *112:65 *415:A2 7.19036e-06
166 *112:65 *530:A1 4.32144e-07
167 *112:65 *537:A1 1.10784e-05
168 *112:65 *570:A 6.56007e-06
169 *112:89 *450:A1 0
170 *120:32 *570:A 3.2158e-05
171 *128:8 *359:127 6.94234e-06
172 *138:12 *434:B2 4.9678e-06
173 *138:51 *618:C2 2.3953e-05
174 *181:23 *450:A1 4.24402e-05
175 *195:19 *359:70 3.26032e-06
176 *196:8 *537:A1 3.21555e-05
177 *212:12 *359:70 5.01532e-06
178 *275:8 *618:C2 6.32202e-06
179 *277:12 *618:C2 4.69702e-07
180 *277:12 *359:166 2.3767e-06
181 *278:16 *359:166 9.02122e-06
182 *358:8 *359:8 2.77917e-07
183 *358:21 *359:8 3.53824e-06
184 *358:21 *359:17 6.80417e-07
185 *358:40 *359:17 1.1144e-06
186 *358:40 *359:21 2.55787e-06
187 *358:40 *359:55 1.79544e-06
188 *358:203 *450:A1 3.09411e-06
*RES
1 *696:Q *359:8 13.6429 
2 *359:8 *678:B 10 
3 *359:8 *359:17 2.96429 
4 *359:17 *359:21 9.75 
5 *359:21 *359:23 1.60714 
6 *359:23 *516:A1 5 
7 *359:23 *359:36 7.53572 
8 *359:36 *436:A1 5 
9 *359:36 *434:B2 10.75 
10 *359:21 *515:B2 5 
11 *359:17 *359:55 11.1071 
12 *359:55 *359:59 3.03572 
13 *359:59 *438:A 15.25 
14 *359:59 *359:70 7.03572 
15 *359:70 *359:72 5 
16 *359:72 *496:A2 5.75 
17 *359:72 *537:A1 15.9286 
18 *359:70 *359:92 2.96429 
19 *359:92 *415:A2 10.75 
20 *359:92 *359:105 7.28572 
21 *359:105 *570:A 9.75 
22 *359:105 *530:A1 8.10714 
23 *359:55 *359:127 19.75 
24 *359:127 *423:A2 5 
25 *359:127 *359:136 5.67857 
26 *359:136 *395:A 5 
27 *359:136 *359:145 8.75 
28 *359:145 *359:147 8.39286 
29 *359:147 *408:A2 15.3571 
30 *359:147 *359:162 7.75 
31 *359:162 *359:166 16.7857 
32 *359:166 *618:C2 36.1786 
33 *359:166 *626:A1 10 
34 *359:162 *553:A1 9.25 
35 *359:145 *359:207 13.1071 
36 *359:207 *359:211 7.96429 
37 *359:211 *480:A1 10.75 
38 *359:211 *450:A1 19.1429 
39 *359:207 *552:A2 5.75 
*END

*D_NET *360 0.00541828
*CONN
*I *537:A2 I *D AND2_X1
*I *531:B2 I *D AOI221_X1
*I *497:A I *D OAI21_X1
*I *499:A1 I *D NAND3_X1
*I *424:A I *D BUF_X1
*I *532:B1 I *D AOI21_X1
*I *530:A2 I *D NOR2_X2
*I *570:B I *D XOR2_X1
*I *541:A1 I *D NOR2_X1
*I *450:A2 I *D NAND2_X2
*I *556:C1 I *D AOI211_X2
*I *555:A I *D OAI21_X1
*I *433:A I *D INV_X1
*I *612:A1 I *D NAND3_X1
*I *480:A2 I *D OR2_X2
*I *406:A1 I *D NAND2_X2
*I *487:B1 I *D AOI21_X1
*I *523:A1 I *D NAND4_X1
*I *521:A I *D XNOR2_X1
*I *697:Q O *D DFFR_X1
*CAP
1 *537:A2 0
2 *531:B2 0
3 *497:A 4.6369e-05
4 *499:A1 1.58978e-05
5 *424:A 9.27331e-05
6 *532:B1 5.79e-06
7 *530:A2 5.07498e-05
8 *570:B 1.75319e-05
9 *541:A1 0.000138097
10 *450:A2 0
11 *556:C1 7.12525e-05
12 *555:A 0
13 *433:A 8.48437e-05
14 *612:A1 1.80313e-05
15 *480:A2 0
16 *406:A1 2.09867e-05
17 *487:B1 5.17015e-06
18 *523:A1 8.71307e-06
19 *521:A 5.2113e-05
20 *697:Q 5.23383e-05
21 *360:223 7.47622e-05
22 *360:206 0.000113786
23 *360:195 3.74817e-05
24 *360:184 7.96697e-05
25 *360:182 4.14149e-05
26 *360:167 0.000103741
27 *360:161 8.73442e-05
28 *360:137 0.000192757
29 *360:87 0.000246607
30 *360:81 0.000147835
31 *360:79 0.000116221
32 *360:75 0.000100423
33 *360:66 3.18404e-05
34 *360:51 0.000180697
35 *360:40 0.000137938
36 *360:38 0.000129338
37 *360:25 0.000154634
38 *360:10 0.0001578
39 *424:A *571:A1 4.97191e-06
40 *424:A *655:B 7.16188e-07
41 *424:A *378:29 2.13778e-05
42 *433:A *361:264 0
43 *487:B1 *487:A 7.19036e-06
44 *497:A *500:A 2.89018e-05
45 *499:A1 *500:A 4.32144e-07
46 *499:A1 *378:29 0
47 *541:A1 *361:184 2.19296e-06
48 *556:C1 *552:A3 0.000103948
49 *556:C1 *554:A1 2.16072e-07
50 *556:C1 *557:A1 2.39679e-06
51 *556:C1 *557:B1 4.73284e-06
52 *570:B *361:214 7.09501e-06
53 *612:A1 *612:A2 7.19036e-06
54 *612:A1 *373:43 9.77674e-06
55 *360:10 *398:A 4.30918e-06
56 *360:25 *398:A 0
57 *360:25 *523:A2 1.21774e-06
58 *360:38 *523:A2 3.46596e-06
59 *360:38 *361:109 5.41015e-05
60 *360:51 *487:A 7.19036e-06
61 *360:79 *552:A3 4.89945e-06
62 *360:87 *373:43 2.16603e-05
63 *360:161 *361:109 1.66988e-05
64 *360:161 *361:120 0.000113791
65 *360:167 *361:120 0
66 *360:167 *361:208 0
67 *360:182 *531:A 4.30918e-06
68 *360:182 *361:214 2.89018e-05
69 pc_out[0] *360:10 1.61721e-05
70 pc_out[1] *360:10 2.15368e-06
71 *403:A1 *541:A1 0
72 *403:A2 *541:A1 2.57188e-06
73 *408:A2 *360:87 1.07633e-05
74 *412:A1 *532:B1 7.19036e-06
75 *416:A1 *541:A1 1.81555e-05
76 *438:A *360:25 1.7898e-05
77 *438:A *360:38 3.09143e-06
78 *448:A *360:38 0
79 *450:A1 *541:A1 4.43868e-06
80 *450:A1 *360:79 5.64879e-06
81 *450:A1 *360:137 4.5899e-05
82 *466:B1 *360:51 8.67699e-06
83 *466:B1 *360:66 3.30918e-06
84 *466:B1 *360:75 4.32144e-07
85 *480:A1 *360:66 7.72792e-06
86 *483:A *433:A 2.94455e-05
87 *486:A *521:A 2.23415e-06
88 *489:A *360:38 5.39659e-06
89 *489:B2 *360:161 0
90 *489:B2 *360:167 1.88334e-06
91 *497:B1 *497:A 2.75346e-06
92 *497:B2 *497:A 0.000100912
93 *498:A1 *497:A 1.34524e-05
94 *498:A1 *360:223 4.80378e-06
95 *498:A2 *497:A 5.11191e-06
96 *499:A2 *499:A1 8.43215e-07
97 *508:A2 *541:A1 2.5724e-05
98 *508:A2 *360:137 1.02675e-05
99 *521:B *521:A 1.74934e-05
100 *522:B1 *360:87 0
101 *530:A1 *530:A2 7.16188e-07
102 *531:B1 *360:182 7.72792e-06
103 *531:B1 *360:184 2.39679e-06
104 *531:C2 *530:A2 1.5125e-06
105 *531:C2 *360:184 4.32144e-07
106 *532:A *532:B1 2.39679e-06
107 *537:A1 *360:167 2.88181e-05
108 *538:B1 *570:B 1.87637e-06
109 *538:B1 *360:167 2.89349e-05
110 *538:B1 *360:182 1.42569e-05
111 *538:C1 *360:167 4.17701e-06
112 *555:B1 *360:79 6.53767e-05
113 *555:B2 *360:81 7.16188e-07
114 *555:B2 *360:87 7.16188e-07
115 *556:C2 *556:C1 4.4892e-05
116 *556:C2 *360:81 4.79358e-06
117 *565:B *541:A1 7.72537e-06
118 *570:A *530:A2 4.8057e-06
119 *571:A2 *530:A2 0
120 *572:A2 *424:A 1.08445e-05
121 *572:A2 *360:195 0.000104338
122 *572:A2 *360:206 3.76506e-05
123 *572:A2 *360:223 3.67001e-05
124 *572:B1 *424:A 1.39615e-05
125 *572:B2 *424:A 4.66354e-05
126 *572:B2 *532:B1 1.68643e-06
127 *614:A2 *406:A1 3.69646e-06
128 *614:A2 *360:87 0
129 *655:S *424:A 0
130 *693:A *497:A 5.62265e-05
131 *698:D *433:A 2.58428e-06
132 *700:CK *521:A 1.857e-05
133 *700:CK *360:10 1.95235e-05
134 *703:CK *497:A 9.62051e-07
135 *1:59 *360:195 0.000103795
136 *1:59 *360:206 2.96955e-05
137 *1:70 *497:A 1.72426e-05
138 *1:70 *360:206 1.2203e-05
139 *1:70 *360:223 5.42208e-05
140 *1:74 *499:A1 2.39679e-06
141 *1:85 *541:A1 1.39839e-06
142 *99:31 *406:A1 2.24766e-05
143 *99:43 *360:25 0
144 *99:43 *360:87 1.64173e-05
145 *99:53 *521:A 8.21988e-06
146 *101:23 *360:87 0
147 *101:49 *360:38 3.09143e-06
148 *101:49 *360:51 6.56007e-06
149 *101:55 *360:38 2.89018e-05
150 *101:55 *360:161 9.84176e-05
151 *101:68 *360:161 1.68643e-06
152 *103:8 *541:A1 0
153 *105:25 *360:81 2.39679e-06
154 *105:25 *360:87 5.91602e-05
155 *109:44 *541:A1 3.18639e-06
156 *111:14 *433:A 5.0538e-05
157 *111:29 *433:A 3.28137e-06
158 *111:29 *612:A1 2.16072e-07
159 *111:71 *360:51 3.13062e-05
160 *111:82 *406:A1 1.26998e-05
161 *111:82 *360:51 3.46864e-06
162 *111:82 *360:66 3.76649e-05
163 *111:82 *360:75 7.72537e-06
164 *111:82 *360:137 0
165 *112:8 *360:51 1.10823e-05
166 *112:65 *360:161 7.72537e-06
167 *112:65 *360:167 2.82896e-05
168 *120:32 *570:B 7.93757e-06
169 *120:32 *360:184 0
170 *138:23 *433:A 1.94588e-05
171 *138:23 *360:87 0
172 *138:40 *433:A 3.78407e-05
173 *138:40 *612:A1 1.26998e-05
174 *190:20 *360:51 0
175 *212:12 *360:25 7.10056e-06
176 *216:12 *530:A2 0
177 *234:6 *556:C1 1.08579e-05
178 *234:6 *360:81 1.21774e-06
179 *238:10 *556:C1 2.26306e-06
180 *248:8 *521:A 4.45275e-05
181 *248:8 *360:10 3.62959e-05
182 *272:16 *612:A1 8.43215e-07
183 *274:12 *612:A1 2.94435e-05
184 *274:12 *360:87 1.27467e-05
185 *340:16 *497:A 5.39412e-06
186 *351:6 *424:A 0
187 *358:94 *487:B1 7.19036e-06
188 *358:94 *360:38 9.03002e-06
189 *358:94 *360:51 0.000103223
190 *358:96 *360:38 0
191 *358:148 *360:51 0
192 *359:127 *360:38 0.000101359
193 *359:147 *360:87 5.73442e-05
194 *359:166 *360:87 1.0495e-05
195 *359:207 *360:87 4.42084e-06
196 *359:211 *360:79 4.43868e-06
*RES
1 *697:Q *360:10 17.75 
2 *360:10 *521:A 18.1071 
3 *360:10 *360:25 10.75 
4 *360:25 *523:A1 5.92857 
5 *360:25 *360:38 18.7143 
6 *360:38 *360:40 5 
7 *360:40 *487:B1 5.75 
8 *360:40 *360:51 17.1786 
9 *360:51 *406:A1 17.8571 
10 *360:51 *360:66 3.75 
11 *360:66 *480:A2 5 
12 *360:66 *360:75 5.75 
13 *360:75 *360:79 10 
14 *360:79 *360:81 0.75 
15 *360:81 *360:87 24.5714 
16 *360:87 *612:A1 12.8571 
17 *360:87 *433:A 31.1071 
18 *360:81 *555:A 5 
19 *360:79 *556:C1 25.5 
20 *360:75 *360:137 7.03572 
21 *360:137 *450:A2 10 
22 *360:137 *541:A1 24.5714 
23 *360:38 *360:161 12.7857 
24 *360:161 *360:167 12.0714 
25 *360:167 *570:B 12.25 
26 *360:167 *360:182 9.53572 
27 *360:182 *360:184 0.75 
28 *360:184 *530:A2 9.75 
29 *360:184 *360:195 10.6786 
30 *360:195 *532:B1 10.75 
31 *360:195 *360:206 2.28572 
32 *360:206 *424:A 21.8571 
33 *360:206 *360:223 2.96429 
34 *360:223 *499:A1 11.6786 
35 *360:223 *497:A 19.1429 
36 *360:182 *531:B2 5 
37 *360:161 *537:A2 5 
*END

*D_NET *361 0.00659237
*CONN
*I *579:A2 I *D NOR2_X1
*I *556:B I *D AOI211_X2
*I *557:A1 I *D AOI22_X1
*I *591:C1 I *D AOI221_X1
*I *560:A1 I *D AOI22_X1
*I *553:A2 I *D NOR2_X1
*I *436:C2 I *D AOI222_X4
*I *538:A I *D AOI221_X4
*I *500:A I *D AOI21_X1
*I *531:A I *D AOI221_X1
*I *594:C1 I *D OAI221_X2
*I *573:A1 I *D NOR2_X1
*I *541:A2 I *D NOR2_X1
*I *402:A2 I *D NAND2_X1
*I *451:A1 I *D NOR2_X1
*I *481:A1 I *D NOR2_X2
*I *487:A I *D AOI21_X1
*I *485:A1 I *D NAND2_X1
*I *523:A2 I *D NAND4_X1
*I *515:A I *D OAI21_X1
*I *516:A2 I *D NAND2_X1
*I *577:A1 I *D NAND2_X1
*I *405:A I *D INV_X4
*I *414:A I *D BUF_X1
*I *698:Q O *D DFFR_X1
*CAP
1 *579:A2 8.71307e-06
2 *556:B 7.54015e-06
3 *557:A1 7.15083e-05
4 *591:C1 0
5 *560:A1 4.72201e-05
6 *553:A2 0
7 *436:C2 0
8 *538:A 0
9 *500:A 0.000184345
10 *531:A 1.36942e-05
11 *594:C1 2.2458e-05
12 *573:A1 1.66752e-05
13 *541:A2 0
14 *402:A2 1.10722e-05
15 *451:A1 0.000124099
16 *481:A1 0
17 *487:A 9.4786e-06
18 *485:A1 8.71307e-06
19 *523:A2 5.66709e-05
20 *515:A 5.17015e-06
21 *516:A2 0
22 *577:A1 0.000101967
23 *405:A 2.20226e-05
24 *414:A 7.75831e-05
25 *698:Q 5.86468e-06
26 *361:279 6.79245e-05
27 *361:275 9.65427e-05
28 *361:271 4.57858e-05
29 *361:264 0.00017649
30 *361:256 0.000175263
31 *361:214 0.000240929
32 *361:208 8.45612e-05
33 *361:184 0.000170131
34 *361:169 0.000211713
35 *361:154 0.000140036
36 *361:132 0.000196684
37 *361:126 0.000215
38 *361:120 0.000183512
39 *361:109 9.90476e-05
40 *361:96 7.9909e-05
41 *361:85 0.000141135
42 *361:72 7.42863e-05
43 *361:50 0.000142113
44 *361:42 8.61933e-05
45 *361:38 5.95072e-05
46 *361:36 0.000126324
47 *361:21 0.000107757
48 *361:8 9.42479e-05
49 *405:A *383:31 3.30813e-05
50 *556:B *372:26 0
51 *557:A1 *552:A3 1.74882e-05
52 *557:A1 *557:B1 1.83315e-05
53 *557:A1 *381:21 6.40019e-06
54 *560:A1 *562:B2 2.52965e-06
55 *560:A1 *591:C2 9.31531e-06
56 *560:A1 *373:22 6.56007e-06
57 *361:8 *383:31 1.07428e-06
58 *361:169 *477:A2 8.727e-07
59 *361:264 *373:37 2.71702e-06
60 *361:264 *373:43 3.81605e-05
61 *361:279 *381:21 1.06702e-05
62 dest_out[1] *414:A 0.000104527
63 *397:A2 *361:126 2.39345e-05
64 *397:A2 *361:132 1.16042e-05
65 *399:A *361:126 2.20691e-05
66 *403:A2 *361:169 0
67 *408:A2 *361:264 3.90891e-05
68 *416:A2 *361:154 2.99187e-06
69 *432:A1 *361:36 9.15042e-05
70 *433:A *361:264 0
71 *436:A2 *361:36 9.77674e-06
72 *436:A2 *361:38 2.90909e-06
73 *436:A2 *361:256 7.86103e-06
74 *436:B1 *361:36 0
75 *436:B1 *361:42 3.09411e-06
76 *436:B1 *361:50 0
77 *436:B2 *361:38 4.76326e-06
78 *436:C1 *361:36 8.72084e-07
79 *436:C1 *361:50 0
80 *476:A1 *361:169 0
81 *476:A2 *402:A2 1.80284e-05
82 *476:A2 *451:A1 2.71364e-05
83 *478:A *361:169 0
84 *479:A2 *500:A 5.81102e-06
85 *483:A *414:A 0
86 *483:A *361:21 0
87 *483:A *361:36 1.63527e-06
88 *485:A2 *361:85 0
89 *487:B1 *487:A 7.19036e-06
90 *489:A *361:85 8.72084e-07
91 *489:A *361:109 4.16195e-06
92 *489:B1 *487:A 1.19839e-05
93 *497:A *500:A 2.89018e-05
94 *497:B2 *500:A 2.08098e-06
95 *498:A1 *500:A 3.64148e-05
96 *498:A2 *500:A 1.28391e-05
97 *499:A1 *500:A 4.32144e-07
98 *499:A2 *500:A 1.21466e-05
99 *500:B1 *500:A 1.01787e-05
100 *508:A2 *451:A1 2.77515e-05
101 *509:B1 *573:A1 0
102 *509:B2 *451:A1 1.15782e-06
103 *509:B2 *573:A1 3.19164e-07
104 *509:B2 *361:184 6.07779e-06
105 *515:B1 *515:A 7.19036e-06
106 *515:B1 *361:38 2.39679e-06
107 *515:B1 *361:42 4.4061e-05
108 *517:A *577:A1 0
109 *519:A1 *577:A1 0
110 *531:B1 *500:A 5.97404e-06
111 *531:B1 *531:A 7.19036e-06
112 *531:B1 *361:214 5.44245e-06
113 *531:C2 *531:A 2.39679e-06
114 *532:B2 *361:208 0
115 *533:A *500:A 9.22938e-05
116 *533:A *531:A 3.09411e-06
117 *538:B1 *361:208 2.75346e-06
118 *538:B1 *361:214 5.00964e-05
119 *538:B2 *531:A 8.98274e-07
120 *538:C1 *361:120 1.88334e-06
121 *538:C1 *361:208 9.24246e-06
122 *538:C2 *361:208 1.04788e-05
123 *538:C2 *361:214 2.75346e-06
124 *541:A1 *361:184 2.19296e-06
125 *553:A1 *361:264 6.13956e-06
126 *554:A2 *361:264 7.72537e-06
127 *554:A2 *361:271 1.26998e-05
128 *556:A *361:271 2.16072e-07
129 *556:C1 *557:A1 2.39679e-06
130 *560:B2 *560:A1 3.35192e-06
131 *562:A2 *361:271 1.51496e-05
132 *562:A2 *361:275 3.09143e-06
133 *562:B1 *361:271 4.31719e-05
134 *562:B1 *361:275 4.97191e-06
135 *565:A *361:184 9.72021e-06
136 *565:B *361:169 6.59103e-05
137 *565:B *361:184 2.84119e-05
138 *566:A1 *573:A1 0
139 *566:A1 *361:184 3.09411e-06
140 *570:B *361:214 7.09501e-06
141 *572:A2 *500:A 0
142 *577:A2 *577:A1 3.69909e-05
143 *579:A1 *361:256 2.16072e-07
144 *579:A1 *361:264 6.3924e-06
145 *580:A *577:A1 7.42587e-06
146 *589:A2 *361:264 2.60987e-06
147 *589:A2 *361:271 3.28137e-06
148 *591:B1 *560:A1 2.11458e-06
149 *594:C2 *573:A1 2.39679e-06
150 *594:C2 *594:C1 2.39679e-06
151 *678:A *577:A1 2.65894e-05
152 *693:A *500:A 1.07393e-05
153 *698:D *414:A 2.20624e-05
154 *1:14 *414:A 6.32461e-06
155 *1:14 *361:21 1.02238e-05
156 *1:14 *361:36 9.55854e-06
157 *1:18 *577:A1 6.38328e-07
158 *1:18 *361:50 1.27666e-06
159 *1:22 *361:50 8.03866e-05
160 *1:22 *361:72 2.4656e-05
161 *1:22 *361:85 2.49497e-05
162 *1:31 *361:85 0.000133403
163 *1:59 *361:214 3.691e-06
164 *1:70 *500:A 8.817e-06
165 *1:74 *500:A 4.30918e-06
166 *1:85 *361:184 5.55955e-06
167 *1:157 *405:A 7.18412e-06
168 *1:157 *361:8 7.09501e-06
169 *65:6 *560:A1 2.17184e-05
170 *99:31 *361:132 6.91187e-06
171 *99:43 *523:A2 7.67817e-06
172 *99:43 *361:96 6.3924e-06
173 *99:43 *361:109 2.23871e-06
174 *100:21 *451:A1 1.84075e-05
175 *102:132 *414:A 5.81224e-06
176 *105:73 *402:A2 5.99828e-06
177 *105:73 *361:154 1.40275e-05
178 *105:73 *361:169 8.15225e-06
179 *105:77 *402:A2 2.75346e-06
180 *105:77 *361:169 0
181 *105:77 *361:184 0
182 *109:44 *361:184 2.31477e-05
183 *111:8 *361:36 6.56745e-06
184 *111:71 *361:132 0
185 *111:82 *451:A1 1.90334e-05
186 *112:65 *361:126 9.65069e-05
187 *112:89 *361:132 6.70962e-05
188 *112:89 *361:154 5.62265e-05
189 *112:104 *361:154 2.51997e-05
190 *120:32 *361:126 2.25909e-05
191 *120:32 *361:214 7.04177e-06
192 *124:8 *451:A1 3.08967e-05
193 *128:10 *361:109 1.72089e-05
194 *128:10 *361:120 2.83471e-05
195 *128:10 *361:208 1.21105e-05
196 *138:12 *361:256 3.19164e-07
197 *138:12 *361:264 2.16072e-07
198 *138:23 *361:264 1.08606e-05
199 *138:40 *361:264 0
200 *140:10 *361:85 0
201 *153:21 *451:A1 7.4606e-06
202 *157:8 *361:154 2.82905e-05
203 *157:8 *361:169 9.31993e-05
204 *181:23 *451:A1 1.0303e-05
205 *181:23 *361:132 7.19036e-06
206 *182:8 *451:A1 1.85139e-05
207 *220:18 *451:A1 1.10905e-06
208 *223:8 *500:A 0
209 *224:25 *361:184 2.00861e-05
210 *235:10 *557:A1 1.29374e-05
211 *235:10 *361:279 1.96924e-05
212 *238:10 *557:A1 0
213 *241:10 *361:184 2.37864e-05
214 *241:22 *594:C1 1.91954e-06
215 *241:22 *361:184 0
216 *298:21 *414:A 4.80114e-06
217 *358:40 *515:A 2.39679e-06
218 *358:49 *515:A 4.79358e-06
219 *358:49 *361:38 6.21633e-06
220 *358:49 *361:256 3.24108e-07
221 *358:66 *361:256 2.55787e-06
222 *358:148 *361:126 1.68643e-06
223 *358:199 *361:126 6.56007e-06
224 *358:199 *361:132 6.13123e-06
225 *358:203 *451:A1 1.62273e-05
226 *358:203 *361:132 5.72598e-06
227 *359:21 *577:A1 1.28122e-06
228 *359:36 *577:A1 8.43215e-07
229 *359:36 *361:42 1.40196e-06
230 *359:36 *361:50 5.63341e-06
231 *359:127 *523:A2 5.36507e-05
232 *359:127 *361:96 4.38852e-05
233 *359:127 *361:109 1.32323e-05
234 *359:162 *361:264 5.41504e-06
235 *360:25 *523:A2 1.21774e-06
236 *360:38 *523:A2 3.46596e-06
237 *360:38 *361:109 5.41015e-05
238 *360:51 *487:A 7.19036e-06
239 *360:161 *361:109 1.66988e-05
240 *360:161 *361:120 0.000113791
241 *360:167 *361:120 0
242 *360:167 *361:208 0
243 *360:182 *531:A 4.30918e-06
244 *360:182 *361:214 2.89018e-05
*RES
1 *698:Q *361:8 10.75 
2 *361:8 *414:A 20.2857 
3 *361:8 *361:21 1.60714 
4 *361:21 *405:A 13.25 
5 *361:21 *361:36 14.8214 
6 *361:36 *361:38 3.25 
7 *361:38 *361:42 9.25 
8 *361:42 *361:50 11 
9 *361:50 *577:A1 17.6071 
10 *361:50 *516:A2 5 
11 *361:42 *361:72 1.60714 
12 *361:72 *515:A 10.75 
13 *361:72 *361:85 13.3929 
14 *361:85 *523:A2 12.1786 
15 *361:85 *361:96 4.25 
16 *361:96 *485:A1 5.92857 
17 *361:96 *361:109 11.25 
18 *361:109 *487:A 11.25 
19 *361:109 *361:120 7.71429 
20 *361:120 *361:126 23.25 
21 *361:126 *361:132 14.3929 
22 *361:132 *481:A1 5 
23 *361:132 *451:A1 31.6786 
24 *361:126 *361:154 7.03572 
25 *361:154 *402:A2 11.75 
26 *361:154 *361:169 16.25 
27 *361:169 *541:A2 5 
28 *361:169 *361:184 24.5 
29 *361:184 *573:A1 7.17857 
30 *361:184 *594:C1 7.85714 
31 *361:120 *361:208 9.89286 
32 *361:208 *361:214 11.2143 
33 *361:214 *531:A 11.75 
34 *361:214 *500:A 41.8214 
35 *361:208 *538:A 5 
36 *361:38 *436:C2 5 
37 *361:36 *361:256 2.75 
38 *361:256 *361:264 16.8571 
39 *361:264 *553:A2 5 
40 *361:264 *361:271 5.25 
41 *361:271 *361:275 5.75 
42 *361:275 *361:279 7.96429 
43 *361:279 *560:A1 11.3571 
44 *361:279 *591:C1 5 
45 *361:275 *557:A1 18.5714 
46 *361:271 *556:B 5.92857 
47 *361:256 *579:A2 5.92857 
*END

*D_NET *362 0.000845957
*CONN
*I *524:A I *D XNOR2_X1
*I *526:A1 I *D NAND2_X1
*I *407:A I *D BUF_X1
*I *699:Q O *D DFFR_X1
*CAP
1 *524:A 4.36163e-05
2 *526:A1 1.33877e-05
3 *407:A 8.78766e-05
4 *699:Q 6.94671e-05
5 *362:12 0.000116493
6 *362:10 0.000128312
7 *407:A *401:A 9.53714e-06
8 *407:A *526:A2 0.000119702
9 *526:A1 *526:A2 4.78054e-06
10 *362:10 *401:A 4.42782e-06
11 *362:10 *364:10 6.70048e-06
12 *362:12 *401:A 1.58483e-05
13 pc_out[6] *407:A 2.0736e-05
14 *396:A *362:10 2.20333e-05
15 *501:A *524:A 5.52959e-06
16 *524:B *524:A 2.27826e-05
17 *527:A1 *524:A 7.93489e-06
18 *527:A1 *526:A1 2.39679e-06
19 *528:B *362:10 0.000107887
20 *699:D *407:A 0
21 *699:D *524:A 6.92862e-06
22 *699:D *362:10 0
23 *699:D *362:12 0
24 *699:RN *362:10 2.1585e-05
25 *701:D *362:10 7.66675e-07
26 *69:31 *362:10 2.84765e-06
27 *98:52 *362:10 0
28 *98:56 *407:A 0
29 *98:56 *362:10 0
30 *98:58 *407:A 0
31 *102:20 *407:A 4.38027e-06
32 *298:60 *524:A 0
*RES
1 *699:Q *362:10 20.6429 
2 *362:10 *362:12 2.28572 
3 *362:12 *407:A 21.9643 
4 *362:12 *526:A1 11.75 
5 *362:10 *524:A 15.75 
*END

*D_NET *340 0.00153206
*CONN
*I *653:A I *D MUX2_X1
*I *646:B I *D MUX2_X1
*I *693:A I *D BUF_X1
*I *491:ZN O *D NAND3_X1
*CAP
1 *653:A 4.61413e-05
2 *646:B 6.56938e-05
3 *693:A 0.000170238
4 *491:ZN 0.000115827
5 *340:29 0.000191042
6 *340:16 0.000365271
7 *646:B *401:A 0
8 *653:A *539:C2 1.36822e-05
9 *653:A *366:12 3.71714e-05
10 *693:A *404:A 1.11232e-05
11 *693:A *497:A 5.62265e-05
12 *693:A *500:A 1.07393e-05
13 *693:A *571:A1 0
14 *693:A *655:A 3.19397e-06
15 *693:A *691:A 6.80378e-06
16 *693:A *769:A 0
17 *693:A *378:29 0
18 *340:16 *479:A1 0
19 *340:16 *497:A 5.39412e-06
20 *340:29 *539:B2 0
21 *479:A2 *340:16 7.11166e-05
22 *491:A1 *340:16 8.30946e-05
23 *498:A2 *340:16 5.36887e-05
24 *676:A *340:16 0
25 *676:B *340:16 0
26 *700:CK *693:A 0
27 *703:D *646:B 3.00727e-05
28 *703:D *653:A 1.07633e-05
29 *703:D *340:29 4.5252e-05
30 *703:RN *646:B 1.75794e-05
31 *703:CK *693:A 0
32 *102:14 *653:A 2.49956e-05
33 *102:14 *340:29 2.84765e-06
34 *102:20 *646:B 7.88313e-05
35 *298:60 *646:B 0
36 *298:60 *653:A 1.25215e-05
37 *298:79 *653:A 2.75346e-06
*RES
1 *491:ZN *340:16 26.1786 
2 *340:16 *693:A 28.3929 
3 *340:16 *340:29 9.75 
4 *340:29 *646:B 19.25 
5 *340:29 *653:A 17.6071 
*END

*D_NET *363 0.000840364
*CONN
*I *526:A2 I *D NAND2_X1
*I *769:A I *D CLKBUF_X1
*I *404:A I *D BUF_X1
*I *700:Q O *D DFFR_X1
*CAP
1 *526:A2 6.35921e-05
2 *769:A 5.76548e-05
3 *404:A 5.32722e-05
4 *700:Q 0
5 *363:8 0.000136273
6 *363:6 8.89382e-05
7 *526:A2 *401:A 4.45976e-05
8 *769:A *700:D 1.07788e-05
9 *407:A *526:A2 0.000119702
10 *526:A1 *526:A2 4.78054e-06
11 *693:A *404:A 1.11232e-05
12 *693:A *769:A 0
13 *700:RN *404:A 1.94479e-06
14 *703:CK *404:A 0
15 *703:CK *769:A 4.91493e-06
16 *98:58 *526:A2 0
17 *102:20 *404:A 7.66675e-07
18 *102:20 *526:A2 1.44385e-05
19 *102:20 *363:8 2.28884e-05
20 *102:26 *404:A 5.85166e-06
21 *299:20 *404:A 2.96272e-05
22 *299:20 *526:A2 3.07768e-05
23 *299:20 *363:8 0.000107313
24 *299:35 *526:A2 3.11302e-05
*RES
1 *700:Q *363:6 10 
2 *363:6 *363:8 5.67857 
3 *363:8 *404:A 16.3571 
4 *363:8 *769:A 15.75 
5 *363:6 *526:A2 22.3571 
*END

*D_NET *364 0.0008472
*CONN
*I *528:A I *D XNOR2_X1
*I *401:A I *D BUF_X1
*I *701:Q O *D DFFR_X1
*CAP
1 *528:A 0
2 *401:A 7.23448e-05
3 *701:Q 0.000157787
4 *364:10 0.000230132
5 *364:10 *702:D 1.63467e-05
6 *396:A *401:A 2.08416e-06
7 *407:A *401:A 9.53714e-06
8 *526:A2 *401:A 4.45976e-05
9 *527:A2 *401:A 4.29135e-05
10 *528:B *401:A 9.48921e-05
11 *528:B *364:10 3.01743e-06
12 *646:B *401:A 0
13 *699:D *401:A 0
14 *701:D *364:10 9.43183e-05
15 *102:20 *401:A 0
16 *299:35 *401:A 5.22531e-05
17 *362:10 *401:A 4.42782e-06
18 *362:10 *364:10 6.70048e-06
19 *362:12 *401:A 1.58483e-05
*RES
1 *701:Q *364:10 33.5714 
2 *364:10 *401:A 28.1071 
3 *364:10 *528:A 5 
*END

*D_NET *365 0.000296347
*CONN
*I *400:A I *D BUF_X1
*I *768:A I *D CLKBUF_X1
*I *702:Q O *D DFFR_X1
*CAP
1 *400:A 0
2 *768:A 4.43886e-05
3 *702:Q 9.36047e-05
4 *365:8 0.000137993
5 *768:A *702:D 4.23499e-06
6 *702:RN *365:8 6.38328e-06
7 *69:10 *365:8 9.74263e-06
*RES
1 *702:Q *365:8 14.8571 
2 *365:8 *768:A 19.3214 
3 *365:8 *400:A 5 
*END

*D_NET *374 0.00113397
*CONN
*I *520:A2 I *D NAND2_X1
*I *639:A3 I *D NAND4_X1
*I *398:A I *D BUF_X1
*I *523:A4 I *D NAND4_X1
*I *518:A2 I *D NAND2_X1
*I *515:ZN O *D OAI21_X1
*CAP
1 *520:A2 0
2 *639:A3 0
3 *398:A 9.9999e-05
4 *523:A4 0
5 *518:A2 8.86944e-05
6 *515:ZN 2.37198e-05
7 *374:36 0.000158735
8 *374:25 9.46927e-05
9 *374:10 0.000129729
10 *374:6 2.87981e-05
11 pc_out[0] *398:A 2.66535e-05
12 pc_out[1] *398:A 0
13 *465:A *398:A 1.08561e-05
14 *518:A1 *518:A2 1.45851e-05
15 *519:A1 *518:A2 3.83757e-05
16 *521:B *374:25 2.67562e-05
17 *523:A3 *374:25 0.000103099
18 *523:A3 *374:36 1.77822e-05
19 *577:A2 *518:A2 4.18301e-05
20 *580:A *374:6 1.89851e-06
21 *580:A *374:10 2.14856e-06
22 *581:A1 *374:6 3.83783e-05
23 *581:A1 *374:10 7.19036e-06
24 *639:A4 *398:A 2.0281e-05
25 *38:8 *518:A2 5.11191e-06
26 *38:8 *374:25 2.94113e-05
27 *212:12 *374:36 2.38363e-05
28 *298:8 *398:A 9.6515e-06
29 *298:12 *518:A2 7.46774e-06
30 *358:109 *398:A 0
31 *359:8 *518:A2 4.7972e-06
32 *359:17 *518:A2 1.11198e-05
33 *359:21 *374:6 1.1025e-05
34 *359:55 *518:A2 1.90574e-06
35 *359:55 *374:36 7.9406e-06
36 *359:59 *374:36 1.55241e-05
37 *359:70 *374:36 2.7671e-05
38 *360:10 *398:A 4.30918e-06
39 *360:25 *398:A 0
*RES
1 *515:ZN *374:6 8.75 
2 *374:6 *374:10 5.75 
3 *374:10 *518:A2 22.2143 
4 *374:10 *374:25 7.03572 
5 *374:25 *523:A4 10 
6 *374:25 *374:36 14.0714 
7 *374:36 *398:A 16.8571 
8 *374:36 *639:A3 5 
9 *374:6 *520:A2 5 
*END

*D_NET *102 0.00829252
*CONN
*I *722:RN I *D DFFR_X1
*I *721:RN I *D DFFR_X1
*I *707:RN I *D DFFR_X1
*I *706:RN I *D DFFR_X1
*I *715:RN I *D DFFR_X1
*I *720:RN I *D DFFR_X1
*I *704:RN I *D DFFR_X1
*I *714:RN I *D DFFR_X1
*I *719:RN I *D DFFR_X1
*I *698:RN I *D DFFR_X1
*I *710:RN I *D DFFR_X1
*I *705:RN I *D DFFR_X1
*I *709:RN I *D DFFR_X1
*I *708:RN I *D DFFR_X1
*I *717:RN I *D DFFR_X1
*I *716:RN I *D DFFR_X1
*I *695:RN I *D DFFR_X1
*I *712:RN I *D DFFR_X1
*I *711:RN I *D DFFR_X1
*I *703:RN I *D DFFR_X1
*I *700:RN I *D DFFR_X1
*I *713:RN I *D DFFR_X1
*I *697:RN I *D DFFR_X1
*I *696:RN I *D DFFR_X1
*I *718:RN I *D DFFR_X1
*I *396:Z O *D BUF_X4
*CAP
1 *722:RN 6.50781e-06
2 *721:RN 2.34092e-05
3 *707:RN 2.63981e-05
4 *706:RN 0
5 *715:RN 0.000122562
6 *720:RN 5.3668e-05
7 *704:RN 0
8 *714:RN 4.93371e-06
9 *719:RN 0.000215523
10 *698:RN 0
11 *710:RN 2.33182e-05
12 *705:RN 0.000165235
13 *709:RN 9.66818e-05
14 *708:RN 0
15 *717:RN 0
16 *716:RN 0
17 *695:RN 0
18 *712:RN 0.000228652
19 *711:RN 8.12487e-06
20 *703:RN 3.36347e-05
21 *700:RN 8.11639e-06
22 *713:RN 2.43169e-05
23 *697:RN 1.00284e-05
24 *696:RN 0.000106818
25 *718:RN 2.95228e-05
26 *396:Z 1.85916e-05
27 *102:295 0.000147178
28 *102:280 0.000209695
29 *102:273 8.48898e-05
30 *102:244 0.000270986
31 *102:212 0.00012836
32 *102:208 0.000118831
33 *102:165 0.000321791
34 *102:156 0.000100769
35 *102:152 0.000117904
36 *102:145 0.000148633
37 *102:132 0.000338805
38 *102:124 0.000294587
39 *102:115 9.05579e-05
40 *102:32 0.000262671
41 *102:28 0.000328425
42 *102:26 0.0002559
43 *102:20 0.000234749
44 *102:14 0.000331236
45 *102:10 0.000181665
46 *102:8 0.000173145
47 *696:RN *383:6 1.12308e-05
48 *696:RN *383:31 7.37878e-05
49 *700:RN *404:A 1.94479e-06
50 *703:RN *646:A 1.06457e-05
51 *703:RN *646:B 1.75794e-05
52 *703:RN *332:6 0
53 *705:RN *125:12 1.68357e-05
54 *705:RN *125:47 2.34788e-05
55 *705:RN *128:51 1.71454e-06
56 *705:RN *299:82 8.6421e-06
57 *705:RN *345:12 0.000425133
58 *705:RN *371:61 0.000276269
59 *709:RN *603:A 0
60 *709:RN *287:20 0
61 *709:RN *372:26 7.90853e-06
62 *710:RN *338:16 0
63 *713:RN *691:A 0
64 *713:RN *378:10 0
65 *715:RN *380:18 9.07146e-05
66 *715:RN *385:16 0
67 *718:RN *640:A1 3.58692e-05
68 *720:RN *343:20 6.0647e-07
69 *720:RN *380:18 9.30875e-05
70 *720:RN *385:16 5.11249e-06
71 *721:RN *386:14 0
72 *102:14 *539:C2 1.50873e-06
73 *102:14 *653:A 2.49956e-05
74 *102:14 *340:29 2.84765e-06
75 *102:14 *366:12 3.01743e-06
76 *102:14 *376:12 2.06929e-06
77 *102:20 *401:A 0
78 *102:20 *404:A 7.66675e-07
79 *102:20 *407:A 4.38027e-06
80 *102:20 *526:A2 1.44385e-05
81 *102:20 *646:A 3.07362e-05
82 *102:20 *646:B 7.88313e-05
83 *102:20 *299:20 6.85774e-07
84 *102:20 *363:8 2.28884e-05
85 *102:26 *404:A 5.85166e-06
86 *102:26 *655:A 1.3143e-06
87 *102:26 *299:20 9.04867e-06
88 *102:26 *342:18 2.60994e-05
89 *102:26 *378:10 2.30282e-06
90 *102:28 dest_out[3] 0
91 *102:28 pc_out[0] 1.09525e-06
92 *102:28 reg_write_out 0
93 *102:32 *640:A1 5.64879e-06
94 *102:115 *383:31 0
95 *102:124 *298:21 0
96 *102:124 *383:31 0
97 *102:132 dest_out[1] 0
98 *102:132 *414:A 5.81224e-06
99 *102:132 *483:A 2.14856e-06
100 *102:132 *563:B2 0
101 *102:132 *616:A1 1.43238e-06
102 *102:132 *616:A2 2.43548e-06
103 *102:132 *618:C2 4.07103e-05
104 *102:132 *658:B 6.87788e-06
105 *102:132 *659:S 2.55331e-06
106 *102:132 *274:12 0
107 *102:132 *298:21 0
108 *102:145 *563:B2 0
109 *102:145 *659:A 1.57e-05
110 *102:145 *659:B 3.32354e-05
111 *102:145 *659:S 1.37209e-05
112 *102:152 *659:A 1.08607e-05
113 *102:152 *338:16 0
114 *102:156 *345:27 0
115 *102:165 *299:88 2.99187e-06
116 *102:165 *345:12 9.36292e-05
117 *102:165 *371:14 6.78878e-05
118 *102:165 *371:61 7.5597e-05
119 *102:165 *373:14 2.15599e-05
120 *102:208 *692:A 0
121 *102:244 alu_result_out[4] 1.91954e-06
122 *102:244 *588:A 0
123 *102:244 *385:16 8.83061e-06
124 *102:280 *369:10 0
125 *600:A *709:RN 6.37408e-06
126 *600:B *709:RN 2.05937e-05
127 *689:A *709:RN 1.56342e-05
128 *697:D *697:RN 0
129 *700:CK *102:26 6.77727e-05
130 *700:CK *102:28 0.000477961
131 *700:CK *102:32 2.3352e-05
132 *703:D *703:RN 1.86809e-06
133 *703:CK *700:RN 1.0794e-06
134 *703:CK *102:20 0
135 *704:D *102:208 0
136 *704:CK *712:RN 1.18547e-06
137 *704:CK *102:208 0
138 *705:D *705:RN 1.27531e-05
139 *708:D *102:152 8.38481e-05
140 *708:CK *710:RN 1.76939e-05
141 *708:CK *102:152 3.55117e-05
142 *709:CK *102:156 1.99644e-05
143 *709:CK *102:165 1.11168e-06
144 *711:CK *712:RN 1.91667e-07
145 *711:CK *102:10 2.22126e-06
146 *711:CK *102:14 5.66767e-06
147 *713:D *713:RN 1.11194e-05
148 *713:D *102:28 1.70028e-05
149 *713:CK *102:20 0
150 *713:CK *102:26 8.19001e-06
151 *713:CK *102:28 3.01738e-06
152 *714:D *719:RN 5.69938e-06
153 *715:D *715:RN 0
154 *722:D *707:RN 1.70588e-05
155 *722:D *102:295 3.50707e-05
156 *1:6 *102:124 8.30282e-06
157 *1:6 *102:132 0
158 *1:157 *102:132 0
159 *19:12 *102:280 1.60038e-06
160 *19:12 *102:295 2.80727e-05
161 *64:10 *102:165 6.88366e-06
162 *78:14 *707:RN 9.8046e-06
163 *78:14 *721:RN 0
164 *78:14 *102:273 5.59226e-06
165 *78:14 *102:280 3.16704e-05
166 *78:14 *102:295 0
167 *98:12 *102:244 0
168 *98:22 *719:RN 0
169 *98:35 *712:RN 1.24611e-05
170 *98:50 *712:RN 3.68841e-05
171 *98:50 *102:8 0
172 *98:58 *102:20 0
173 *98:137 *720:RN 6.77275e-05
174 *99:53 *102:32 3.48799e-05
175 *99:57 *718:RN 1.58449e-05
176 *99:57 *102:32 4.70437e-05
177 *99:83 *102:115 0
178 *99:83 *102:124 0
*RES
1 *396:Z *102:8 11.75 
2 *102:8 *102:10 2.28572 
3 *102:10 *102:14 22.2143 
4 *102:14 *102:20 24.3214 
5 *102:20 *102:26 11.4286 
6 *102:26 *102:28 25.3572 
7 *102:28 *102:32 22.0357 
8 *102:32 *718:RN 15 
9 *102:32 *696:RN 18.25 
10 *102:28 *697:RN 10.75 
11 *102:26 *713:RN 12.75 
12 *102:20 *700:RN 10.75 
13 *102:14 *703:RN 9.35714 
14 *102:10 *711:RN 10.75 
15 *102:8 *712:RN 24.6429 
16 *696:RN *102:115 8.75 
17 *102:115 *695:RN 5 
18 *102:115 *102:124 5.67857 
19 *102:124 *102:132 25.8572 
20 *102:132 *716:RN 5 
21 *102:132 *102:145 12.3571 
22 *102:145 *717:RN 5 
23 *102:145 *102:152 8.75 
24 *102:152 *102:156 10 
25 *102:156 *708:RN 10 
26 *102:156 *102:165 11.1071 
27 *102:165 *709:RN 20.5357 
28 *102:165 *705:RN 39.4286 
29 *102:152 *710:RN 7.67857 
30 *102:124 *698:RN 5 
31 *712:RN *102:208 14.7143 
32 *102:208 *102:212 2.67857 
33 *102:212 *719:RN 15.6429 
34 *102:212 *714:RN 5.92857 
35 *102:208 *704:RN 5 
36 *719:RN *102:244 21.25 
37 *102:244 *720:RN 17.7857 
38 *102:244 *715:RN 22.25 
39 *715:RN *102:273 6.75 
40 *102:273 *706:RN 5 
41 *102:273 *102:280 7.75 
42 *102:280 *707:RN 8.67857 
43 *102:280 *102:295 14.4643 
44 *102:295 *721:RN 7.67857 
45 *102:295 *722:RN 5.92857 
*END

*D_NET *390 0.000345853
*CONN
*I *702:D I *D DFFR_X1
*I *768:Z O *D CLKBUF_X1
*CAP
1 *702:D 0.000153609
2 *768:Z 0.000153609
3 *702:RN *702:D 0
4 *768:A *702:D 4.23499e-06
5 *69:10 *702:D 0
6 *98:50 *702:D 5.01336e-06
7 *98:52 *702:D 1.30395e-05
8 *364:10 *702:D 1.63467e-05
*RES
1 *768:Z *702:D 36.0357 
*END

*D_NET *391 0.000368816
*CONN
*I *700:D I *D DFFR_X1
*I *769:Z O *D CLKBUF_X1
*CAP
1 *700:D 5.37413e-05
2 *769:Z 5.37413e-05
3 *703:CK *700:D 3.16298e-05
4 *769:A *700:D 1.07788e-05
5 *298:60 *700:D 8.73663e-05
6 *299:20 *700:D 0.000131558
*RES
1 *769:Z *700:D 30.2857 
*END

*D_NET *341 0.000685566
*CONN
*I *647:B I *D MUX2_X1
*I *692:A I *D BUF_X1
*I *654:A I *D MUX2_X1
*I *502:ZN O *D NAND3_X1
*CAP
1 *647:B 0
2 *692:A 0.000166216
3 *654:A 2.02235e-05
4 *502:ZN 2.1069e-05
5 *341:23 0.000241967
6 *341:8 0.000117044
7 *692:A *367:10 4.69143e-05
8 *692:A *377:8 0
9 *341:23 *529:A 9.5257e-06
10 *341:23 *647:A 7.16188e-07
11 *341:23 *367:10 0
12 *341:23 *377:8 1.3996e-05
13 *493:A1 *341:8 6.38328e-07
14 *502:A2 *341:23 9.5257e-06
15 *502:A3 *654:A 3.83453e-06
16 *502:A3 *341:8 9.62051e-07
17 *647:S *341:23 3.78195e-07
18 *3:12 *341:23 0
19 *98:22 *341:23 2.77545e-05
20 *102:208 *692:A 0
21 *298:87 *654:A 3.83453e-06
22 *298:87 *341:8 9.66611e-07
23 *298:87 *341:23 0
*RES
1 *502:ZN *341:8 7.17857 
2 *341:8 *654:A 7.25 
3 *341:8 *341:23 19.1071 
4 *341:23 *692:A 32.8929 
5 *341:23 *647:B 5 
*END

*D_NET *342 0.00278003
*CONN
*I *648:B I *D MUX2_X1
*I *655:A I *D MUX2_X1
*I *691:A I *D BUF_X1
*I *510:ZN O *D NAND2_X1
*CAP
1 *648:B 0.000135382
2 *655:A 6.51217e-05
3 *691:A 2.9002e-05
4 *510:ZN 1.58061e-05
5 *342:18 0.000732894
6 *342:10 0.000789958
7 *648:B *648:A 2.14856e-06
8 *648:B *675:A 0
9 *655:A *655:B 7.04452e-05
10 *655:A *378:10 7.66298e-05
11 *691:A *378:10 1.15878e-05
12 *342:10 *368:38 1.10319e-06
13 *342:10 *368:51 7.66675e-07
14 pc_out[2] *342:18 1.93336e-06
15 *468:B1 *648:B 3.31662e-05
16 *505:B2 *648:B 0.000113001
17 *510:A1 *342:10 1.88334e-06
18 *655:S *655:A 2.75346e-06
19 *693:A *655:A 3.19397e-06
20 *693:A *691:A 6.80378e-06
21 *700:CK *655:A 9.90932e-06
22 *713:RN *691:A 0
23 *44:16 *648:B 0
24 *102:26 *655:A 1.3143e-06
25 *102:26 *342:18 2.60994e-05
26 *128:51 *648:B 0.000201383
27 *157:16 *648:B 8.57294e-06
28 *157:16 *342:18 0.000143623
29 *190:20 *342:18 3.94037e-06
30 *190:37 *648:B 6.43658e-06
31 *190:37 *342:18 8.33608e-05
32 *190:45 *342:10 7.48127e-07
33 *245:16 *342:18 1.41915e-05
34 *264:14 *648:B 0
35 *299:20 *655:A 0.000182989
36 *299:20 *342:18 3.87852e-06
*RES
1 *510:ZN *342:10 16.1429 
2 *342:10 *342:18 34.9129 
3 *342:18 *691:A 8.25 
4 *342:18 *655:A 27.75 
5 *342:10 *648:B 29.5829 
*END

*D_NET *343 0.00151487
*CONN
*I *649:B I *D MUX2_X1
*I *511:B I *D MUX2_X1
*I *645:A I *D BUF_X1
*I *656:A I *D MUX2_X1
*I *437:ZN O *D OAI21_X1
*CAP
1 *649:B 6.72166e-05
2 *511:B 0
3 *645:A 0.000103272
4 *656:A 4.66692e-05
5 *437:ZN 6.5014e-05
6 *343:24 0.000174821
7 *343:20 0.000204346
8 *343:14 0.000311697
9 *645:A *544:B2 0
10 *645:A *379:8 0
11 *645:A *384:8 0.000230858
12 *649:B *344:14 0
13 *649:B *386:16 6.02276e-05
14 *656:A *544:B2 1.47858e-06
15 *656:A *656:B 1.83053e-06
16 *343:20 *511:A 3.09143e-06
17 *343:20 *682:A 1.08036e-06
18 *343:20 *344:14 1.634e-05
19 *343:20 *380:18 0
20 *343:24 *544:B2 0
21 *343:24 *384:8 5.91639e-05
22 alu_result_out[4] *645:A 1.5367e-05
23 *437:A *343:14 2.03025e-05
24 *441:C2 *343:14 1.08036e-07
25 *511:S *343:20 7.97793e-06
26 *657:S *656:A 1.27666e-06
27 *657:S *343:20 4.13792e-05
28 *720:RN *343:20 6.0647e-07
29 *24:12 *649:B 1.52374e-05
30 *24:20 *649:B 8.91549e-06
31 *24:20 *343:14 7.9909e-06
32 *24:20 *343:20 3.83909e-06
33 *98:18 *656:A 3.28688e-05
34 *98:137 *343:20 0
35 *98:144 *649:B 0
36 *128:26 *343:14 1.18907e-05
37 *128:26 *343:20 0
*RES
1 *437:ZN *343:14 17.25 
2 *343:14 *343:20 24.6786 
3 *343:20 *343:24 8.25 
4 *343:24 *656:A 15.6429 
5 *343:24 *645:A 24.8929 
6 *343:20 *511:B 5 
7 *343:14 *649:B 18.8571 
*END

*D_NET *344 0.00155307
*CONN
*I *650:B I *D MUX2_X1
*I *588:A I *D BUF_X1
*I *657:A I *D MUX2_X1
*I *512:B I *D MUX2_X1
*I *447:ZN O *D OAI21_X1
*CAP
1 *650:B 4.66386e-05
2 *588:A 6.32389e-05
3 *657:A 0
4 *512:B 2.71721e-05
5 *447:ZN 5.38947e-05
6 *344:25 8.0103e-05
7 *344:14 0.000217421
8 *344:8 0.000273918
9 *512:B *682:A 2.75919e-06
10 *512:B *380:42 2.82592e-05
11 *512:B *385:16 4.40629e-05
12 *588:A *380:18 2.39679e-06
13 *588:A *380:42 4.41686e-05
14 *588:A *385:16 5.39687e-05
15 *650:B *370:8 4.24402e-05
16 *650:B *370:14 3.66089e-05
17 *650:B *370:61 2.86475e-06
18 *650:B *370:70 7.16188e-07
19 *650:B *386:14 2.96955e-05
20 *650:B *386:16 2.52965e-06
21 *344:8 *370:14 3.56913e-05
22 *344:14 *386:16 2.87704e-06
23 *344:25 *380:42 7.48941e-05
24 *344:25 *385:16 7.9142e-05
25 *437:B1 *344:14 0
26 *437:B2 *344:8 2.85655e-06
27 *441:C1 *344:14 4.33476e-05
28 *441:C2 *344:14 0.0001583
29 *442:A *344:14 1.32323e-05
30 *513:S *344:14 7.87454e-06
31 *649:B *344:14 0
32 *650:S *344:14 4.7177e-05
33 *657:S *588:A 0
34 *720:D *344:14 1.18682e-05
35 *98:12 *588:A 3.09143e-06
36 *98:155 *650:B 2.23871e-06
37 *102:244 *588:A 0
38 *128:26 *344:14 1.28122e-06
39 *343:20 *344:14 1.634e-05
*RES
1 *447:ZN *344:8 15.6786 
2 *344:8 *344:14 34.25 
3 *344:14 *512:B 14.3214 
4 *344:14 *344:25 4.32143 
5 *344:25 *657:A 10 
6 *344:25 *588:A 17.7143 
7 *344:8 *650:B 16.0714 
*END

*D_NET *345 0.00261031
*CONN
*I *658:A I *D MUX2_X1
*I *567:A I *D BUF_X1
*I *651:B I *D MUX2_X1
*I *462:ZN O *D OAI21_X1
*CAP
1 *658:A 0.000124801
2 *567:A 0.00015757
3 *651:B 2.21418e-05
4 *462:ZN 0.000133308
5 *345:27 0.000435647
6 *345:14 0.000217097
7 *345:12 0.000174988
8 *658:A *659:A 5.40401e-05
9 *345:12 *373:14 7.99561e-05
10 *345:12 *373:85 6.40358e-05
11 *345:27 *659:B 0
12 *345:27 *371:28 2.90163e-06
13 *602:B1 *345:12 0.00015646
14 *658:S *658:A 2.98439e-06
15 *659:S *658:A 0.000115382
16 *705:D *345:12 2.58076e-06
17 *705:RN *345:12 0.000425133
18 *708:D *345:27 0
19 *710:D *567:A 0
20 *710:CK *567:A 5.7295e-06
21 *716:D *658:A 7.87811e-06
22 *717:D *658:A 3.90891e-05
23 *717:D *345:27 0
24 *14:10 *345:12 3.39527e-06
25 *14:10 *345:27 8.70107e-07
26 *65:6 *651:B 4.26314e-06
27 *65:6 *345:14 7.9958e-06
28 *99:99 *658:A 0
29 *99:108 *658:A 0
30 *99:117 *567:A 3.11333e-05
31 *99:117 *658:A 2.83077e-06
32 *102:156 *345:27 0
33 *102:165 *345:12 9.36292e-05
34 *125:12 *345:12 6.68679e-05
35 *125:14 *345:12 0.000141949
36 *157:37 *345:12 2.1855e-05
37 *287:20 *651:B 4.26314e-06
38 *287:20 *345:14 9.53013e-06
*RES
1 *462:ZN *345:12 45.3214 
2 *345:12 *345:14 4.75 
3 *345:14 *651:B 7.67857 
4 *345:14 *345:27 19.5 
5 *345:27 *567:A 26.8929 
6 *345:27 *658:A 28.1786 
*END

*D_NET *346 0.00162772
*CONN
*I *652:B I *D MUX2_X1
*I *659:A I *D MUX2_X1
*I *525:A I *D BUF_X1
*I *475:ZN O *D OAI21_X1
*CAP
1 *652:B 0
2 *659:A 0.000204603
3 *525:A 4.39673e-05
4 *475:ZN 0.000141112
5 *346:16 0.000356239
6 *346:12 0.000248781
7 *525:A *494:A 4.51191e-05
8 *346:12 *372:55 2.3349e-05
9 *346:16 *494:A 1.27428e-06
10 *346:16 *652:A 1.48912e-05
11 alu_result_out[5] *525:A 8.75656e-06
12 *603:B1 *346:12 7.27241e-06
13 *638:A1 *659:A 4.6837e-06
14 *638:A1 *346:16 1.21006e-05
15 *638:A2 *659:A 2.39679e-06
16 *643:A2 *659:A 0
17 *658:A *659:A 5.40401e-05
18 *659:S *659:A 2.75346e-06
19 *708:CK *659:A 1.07393e-05
20 *709:D *346:12 8.43215e-07
21 *710:D *659:A 0.000108762
22 *710:CK *659:A 3.55053e-06
23 *9:8 *346:12 0
24 *99:117 *659:A 1.18227e-05
25 *102:145 *659:A 1.57e-05
26 *102:152 *659:A 1.08607e-05
27 *263:8 *346:16 6.30637e-05
28 *264:24 *346:16 0
29 *287:20 *346:12 2.35309e-05
30 *299:88 *659:A 0
31 *299:97 *659:A 0
32 *338:44 *346:12 0.000207508
*RES
1 *475:ZN *346:12 34.4643 
2 *346:12 *346:16 17.4643 
3 *346:16 *525:A 15 
4 *346:16 *659:A 36.9286 
5 *346:12 *652:B 5 
*END

*D_NET *347 0.000163009
*CONN
*I *494:A I *D BUF_X1
*I *638:ZN O *D NAND2_X2
*CAP
1 *494:A 5.05806e-05
2 *638:ZN 5.05806e-05
3 alu_result_out[5] *494:A 1.52083e-06
4 alu_result_out[7] *494:A 2.19343e-06
5 *525:A *494:A 4.51191e-05
6 *644:A *494:A 1.174e-05
7 *346:16 *494:A 1.27428e-06
*RES
1 *638:ZN *494:A 25.8929 
*END

*D_NET *151 0.000240352
*CONN
*P pc_out[0] O
*I *448:Z O *D BUF_X1
*CAP
1 pc_out[0] 8.70474e-05
2 *448:Z 8.70474e-05
3 pc_out[0] *398:A 2.66535e-05
4 pc_out[0] *360:10 1.61721e-05
5 pc_out[1] pc_out[0] 1.2445e-05
6 reg_write_out pc_out[0] 9.89166e-06
7 *102:28 pc_out[0] 1.09525e-06
*RES
1 *448:Z pc_out[0] 27.5721 
*END

*D_NET *142 0.000251083
*CONN
*P pc_out[1] O
*I *438:Z O *D BUF_X1
*CAP
1 pc_out[1] 0.000118242
2 *438:Z 0.000118242
3 pc_out[1] dest_out[0] 0
4 pc_out[1] pc_out[0] 1.2445e-05
5 pc_out[1] *398:A 0
6 pc_out[1] *360:10 2.15368e-06
7 *99:43 pc_out[1] 0
*RES
1 *438:Z pc_out[1] 32.1321 
*END

*D_NET *129 0.00035024
*CONN
*P pc_out[2] O
*I *424:Z O *D BUF_X1
*CAP
1 pc_out[2] 0.000130092
2 *424:Z 0.000130092
3 pc_out[2] alu_result_out[2] 2.10915e-05
4 pc_out[2] dest_out[2] 0
5 pc_out[2] *342:18 1.93336e-06
6 pc_out[2] *378:10 3.35155e-05
7 *700:CK pc_out[2] 3.35155e-05
*RES
1 *424:Z pc_out[2] 27.5107 
*END

*D_NET *119 0.000272276
*CONN
*P pc_out[3] O
*I *414:Z O *D BUF_X1
*CAP
1 pc_out[3] 0.000110604
2 *414:Z 0.000110604
3 pc_out[3] dest_out[1] 5.10687e-05
*RES
1 *414:Z pc_out[3] 29.9893 
*END

*D_NET *113 0.000264835
*CONN
*P pc_out[4] O
*I *407:Z O *D BUF_X1
*CAP
1 pc_out[4] 0.000119188
2 *407:Z 0.000119188
3 pc_out[5] pc_out[4] 1.50833e-06
4 pc_out[6] pc_out[4] 3.34116e-06
5 *98:58 pc_out[4] 2.16094e-05
*RES
1 *407:Z pc_out[4] 27.7464 
*END

*D_NET *110 0.000173986
*CONN
*P pc_out[5] O
*I *404:Z O *D BUF_X1
*CAP
1 pc_out[5] 6.28795e-05
2 *404:Z 6.28795e-05
3 pc_out[5] alu_result_out[0] 4.03593e-05
4 pc_out[5] pc_out[4] 1.50833e-06
5 *713:CK pc_out[5] 6.35891e-06
*RES
1 *404:Z pc_out[5] 24.5893 
*END

*D_NET *107 0.000301694
*CONN
*P pc_out[6] O
*I *401:Z O *D BUF_X1
*CAP
1 pc_out[6] 0.000138808
2 *401:Z 0.000138808
3 pc_out[6] pc_out[4] 3.34116e-06
4 pc_out[6] *407:A 2.0736e-05
5 *98:56 pc_out[6] 0
6 *98:58 pc_out[6] 0
*RES
1 *401:Z pc_out[6] 26.8679 
*END

*D_NET *106 9.56822e-05
*CONN
*P pc_out[7] O
*I *400:Z O *D BUF_X1
*CAP
1 pc_out[7] 4.51811e-05
2 *400:Z 4.51811e-05
3 pc_out[7] *694:A 5.31999e-06
*RES
1 *400:Z pc_out[7] 22.8507 
*END

*D_NET *366 0.000895055
*CONN
*I *501:B2 I *D AOI21_X1
*I *687:A I *D HA_X1
*I *646:A I *D MUX2_X1
*I *539:B2 I *D AOI221_X2
*I *703:Q O *D DFFR_X1
*CAP
1 *501:B2 5.19856e-06
2 *687:A 6.07029e-06
3 *646:A 0.000124294
4 *539:B2 4.40879e-05
5 *703:Q 5.30533e-05
6 *366:18 0.000206221
7 *366:16 7.14123e-05
8 *366:12 8.5754e-05
9 *539:B2 *539:C2 0
10 *646:A *539:C2 3.95004e-05
11 *687:A *539:C2 0
12 *366:12 *539:C2 1.45779e-05
13 *366:12 *653:B 3.09143e-06
14 *366:16 *539:C2 0
15 *366:18 *539:C2 0
16 *479:A1 *539:B2 0
17 *484:C2 *366:16 6.08869e-06
18 *501:A *501:B2 6.85774e-07
19 *501:A *366:12 6.59741e-06
20 *501:B1 *501:B2 1.21774e-06
21 *501:B1 *366:16 0
22 *539:B1 *539:B2 2.75346e-06
23 *540:A *687:A 0
24 *653:A *366:12 3.71714e-05
25 *676:A *539:B2 3.53389e-05
26 *676:A *366:16 6.32461e-06
27 *676:A *366:18 4.14348e-05
28 *703:D *539:B2 0
29 *703:RN *646:A 1.06457e-05
30 *703:CK *646:A 0
31 *57:8 *501:B2 1.18589e-06
32 *57:8 *646:A 0
33 *57:8 *687:A 3.09411e-06
34 *57:8 *366:12 6.82202e-07
35 *102:14 *366:12 3.01743e-06
36 *102:20 *646:A 3.07362e-05
37 *182:90 *539:B2 7.16188e-07
38 *298:79 *366:12 1.39292e-05
39 *298:79 *366:16 2.96955e-05
40 *299:20 *646:A 2.75346e-06
41 *299:35 *646:A 7.72537e-06
42 *340:29 *539:B2 0
*RES
1 *703:Q *366:12 22.0357 
2 *366:12 *366:16 8.64286 
3 *366:16 *366:18 5.67857 
4 *366:18 *539:B2 15.75 
5 *366:18 *646:A 24.25 
6 *366:16 *687:A 10.75 
7 *366:12 *501:B2 5.75 
*END

*D_NET *367 0.00366821
*CONN
*I *504:A1 I *D AOI22_X1
*I *682:A I *D HA_X1
*I *535:A1 I *D NAND2_X1
*I *477:A2 I *D NAND2_X1
*I *677:A I *D HA_X1
*I *647:A I *D MUX2_X1
*I *704:Q O *D DFFR_X1
*CAP
1 *504:A1 0.000140527
2 *682:A 0.000158222
3 *535:A1 1.73416e-05
4 *477:A2 7.83074e-05
5 *677:A 8.71307e-06
6 *647:A 1.27413e-05
7 *704:Q 0.000109192
8 *367:78 0.000413793
9 *367:40 0.000171725
10 *367:27 0.000110665
11 *367:25 0.000310957
12 *367:10 0.000291969
13 *504:A1 *544:C1 3.01196e-05
14 *504:A1 *547:A 5.52959e-06
15 *504:A1 *547:B 3.34038e-05
16 *504:A1 *380:42 1.32348e-05
17 *682:A *380:42 1.95583e-05
18 *682:A *385:16 0
19 *367:10 *379:8 0
20 *367:25 *492:A1 4.89991e-06
21 *367:25 *544:B2 0
22 *367:78 *544:C1 2.79015e-05
23 *367:78 *380:42 7.19036e-06
24 *413:C1 *504:A1 1.73125e-05
25 *413:C2 *504:A1 3.16534e-05
26 *421:A *682:A 5.59575e-07
27 *476:A1 *477:A2 0.000102958
28 *476:A1 *367:40 0.000170601
29 *478:B1 *477:A2 8.43215e-07
30 *478:B2 *477:A2 2.23871e-06
31 *479:A2 *477:A2 8.06325e-05
32 *482:A1 *682:A 1.33195e-05
33 *484:B1 *367:40 0
34 *484:B2 *367:27 9.57492e-07
35 *484:B2 *367:40 6.38328e-07
36 *484:B2 *367:78 4.68157e-06
37 *491:A2 *367:40 1.42049e-05
38 *492:A2 *682:A 1.88479e-06
39 *492:B1 *367:25 1.72083e-05
40 *492:B1 *367:40 8.762e-07
41 *502:A1 *367:25 0
42 *502:A2 *367:25 1.86937e-06
43 *505:A2 *504:A1 6.48629e-05
44 *512:B *682:A 2.75919e-06
45 *535:A2 *535:A1 2.52965e-06
46 *536:A2 *535:A1 2.39679e-06
47 *539:B1 *367:40 1.68643e-06
48 *542:S *535:A1 5.05929e-06
49 *542:S *367:25 6.65094e-05
50 *547:S *504:A1 6.82202e-07
51 *549:B1 *367:78 5.23506e-05
52 *549:C2 *682:A 8.8265e-05
53 *568:B *367:25 3.88948e-06
54 *568:B *367:27 6.24846e-06
55 *568:B *367:40 9.03578e-07
56 *568:B *367:78 1.1087e-05
57 *568:S *367:78 7.28295e-05
58 *604:A3 *477:A2 1.62177e-05
59 *692:A *367:10 4.69143e-05
60 *1:74 *477:A2 3.56012e-06
61 *1:74 *535:A1 0
62 *3:12 *367:10 0.000323106
63 *3:12 *367:25 7.85655e-05
64 *3:20 *367:25 0.000130486
65 *25:6 *504:A1 3.23723e-07
66 *43:23 *367:27 6.82202e-07
67 *43:23 *367:40 1.18589e-06
68 *98:12 *682:A 6.47723e-05
69 *98:18 *367:25 0
70 *98:22 *647:A 2.87248e-06
71 *100:39 *682:A 8.92449e-06
72 *101:92 *477:A2 4.82872e-06
73 *101:99 *477:A2 7.13994e-06
74 *101:107 *477:A2 2.07326e-06
75 *109:50 *504:A1 3.23723e-07
76 *117:10 *477:A2 4.80378e-06
77 *117:10 *367:40 1.68391e-05
78 *117:31 *504:A1 3.67704e-06
79 *117:31 *367:40 1.80862e-05
80 *117:42 *504:A1 1.9192e-06
81 *124:21 *682:A 0
82 *128:26 *682:A 9.62051e-07
83 *128:51 *504:A1 2.75346e-06
84 *157:8 *477:A2 0
85 *157:68 *367:25 9.55607e-06
86 *182:90 *367:25 1.00295e-05
87 *219:14 *477:A2 1.87407e-05
88 *220:41 *504:A1 4.26557e-05
89 *220:47 *367:27 0
90 *220:47 *367:78 0
91 *228:28 *504:A1 9.66279e-06
92 *230:16 *504:A1 2.49491e-06
93 *241:22 *504:A1 1.91498e-06
94 *264:14 *477:A2 8.80137e-06
95 *298:87 *647:A 7.77781e-06
96 *298:87 *367:25 2.39928e-06
97 *341:23 *647:A 7.16188e-07
98 *341:23 *367:10 0
99 *343:20 *682:A 1.08036e-06
100 *361:169 *477:A2 8.727e-07
*RES
1 *704:Q *367:10 33.5714 
2 *367:10 *647:A 6.75 
3 *367:10 *367:25 31.8572 
4 *367:25 *367:27 2.75 
5 *367:27 *677:A 5.92857 
6 *367:27 *367:40 16.5 
7 *367:40 *477:A2 32.6429 
8 *367:40 *535:A1 11.75 
9 *367:25 *367:78 16.1071 
10 *367:78 *682:A 34.6072 
11 *367:78 *504:A1 33.3214 
*END

*D_NET *368 0.00320397
*CONN
*I *675:A I *D HA_X1
*I *681:A I *D HA_X1
*I *425:B2 I *D AOI21_X1
*I *492:A1 I *D AOI222_X1
*I *593:A1 I *D NAND2_X1
*I *574:A1 I *D AND2_X1
*I *648:A I *D MUX2_X1
*I *705:Q O *D DFFR_X1
*CAP
1 *675:A 6.82906e-05
2 *681:A 0.00018174
3 *425:B2 0
4 *492:A1 0.000282922
5 *593:A1 8.86246e-06
6 *574:A1 3.84411e-05
7 *648:A 0.000101662
8 *705:Q 6.82906e-05
9 *368:74 0.000216692
10 *368:51 0.00045948
11 *368:38 0.000220157
12 *368:8 0.000173924
13 *368:6 0.000103509
14 *492:A1 *542:B 0
15 *492:A1 *544:B2 1.10947e-05
16 *681:A *370:14 1.02478e-05
17 *368:51 *547:A 3.25936e-06
18 *368:51 *547:B 1.47518e-05
19 *421:C1 *368:51 7.59701e-05
20 *421:C2 *681:A 1.26998e-05
21 *442:B1 *681:A 6.4669e-05
22 *444:B1 *681:A 1.55006e-06
23 *504:B2 *368:51 0
24 *507:A2 *574:A1 3.83909e-06
25 *507:A2 *648:A 0
26 *509:B1 *368:38 1.25581e-05
27 *510:A1 *368:51 1.99688e-06
28 *547:S *593:A1 7.72537e-06
29 *547:S *648:A 2.9716e-06
30 *547:S *368:8 2.46504e-06
31 *547:S *368:38 6.63599e-05
32 *547:S *368:51 1.2203e-05
33 *551:A *681:A 3.83799e-05
34 *574:A2 *574:A1 2.39679e-06
35 *648:B *648:A 2.14856e-06
36 *648:B *675:A 0
37 *665:B *492:A1 1.52083e-06
38 *665:CI *492:A1 5.58442e-05
39 *674:A *648:A 0
40 *674:A *675:A 8.58686e-06
41 *681:B *681:A 2.22661e-05
42 *705:D *648:A 0
43 *3:20 *492:A1 7.0096e-06
44 *6:20 *492:A1 4.89603e-05
45 *6:20 *681:A 8.17855e-06
46 *6:20 *368:74 9.44475e-06
47 *20:22 *681:A 1.45095e-05
48 *20:22 *368:51 4.04607e-05
49 *20:24 *681:A 4.77938e-05
50 *24:20 *368:51 1.48839e-05
51 *30:18 *675:A 9.43007e-06
52 *30:18 *368:8 3.48044e-06
53 *30:18 *368:38 2.71623e-06
54 *30:22 *675:A 5.89767e-05
55 *115:60 *492:A1 0
56 *122:16 *368:51 1.57386e-05
57 *125:10 *574:A1 0
58 *125:10 *648:A 2.23415e-06
59 *125:62 *368:74 3.65974e-06
60 *128:26 *492:A1 5.58442e-05
61 *128:34 *368:51 4.79067e-06
62 *128:34 *368:74 1.33157e-05
63 *128:51 *648:A 0
64 *133:18 *492:A1 0.00021489
65 *133:18 *368:74 7.15179e-05
66 *141:79 *681:A 5.99538e-05
67 *150:20 *681:A 1.64551e-05
68 *157:16 *368:38 0
69 *157:18 *648:A 2.51837e-05
70 *157:18 *368:8 2.7938e-05
71 *157:18 *368:38 1.96521e-05
72 *157:37 *648:A 0
73 *164:14 *675:A 0
74 *190:45 *368:38 0
75 *220:41 *368:51 0
76 *241:22 *593:A1 1.25189e-05
77 *256:12 *368:38 2.75402e-05
78 *342:10 *368:38 1.10319e-06
79 *342:10 *368:51 7.66675e-07
80 *358:229 *648:A 6.47394e-07
81 *367:25 *492:A1 4.89991e-06
*RES
1 *705:Q *368:6 10 
2 *368:6 *368:8 4.32143 
3 *368:8 *648:A 20.3929 
4 *368:8 *574:A1 13.75 
5 *368:6 *368:38 19.3571 
6 *368:38 *593:A1 11.25 
7 *368:38 *368:51 21.3571 
8 *368:51 *492:A1 33.3114 
9 *368:51 *368:74 12.43 
10 *368:74 *425:B2 5 
11 *368:74 *681:A 40.3214 
12 *705:Q *675:A 18.25 
*END

*D_NET *369 0.00292748
*CONN
*I *649:A I *D MUX2_X1
*I *688:A I *D HA_X1
*I *442:B2 I *D AOI21_X1
*I *505:A1 I *D AOI22_X1
*I *673:A I *D HA_X1
*I *544:C1 I *D AOI221_X2
*I *706:Q O *D DFFR_X1
*CAP
1 *649:A 1.36455e-05
2 *688:A 6.98445e-05
3 *442:B2 0
4 *505:A1 5.26614e-05
5 *673:A 0
6 *544:C1 0.000176933
7 *706:Q 0.000173756
8 *369:73 0.000180236
9 *369:20 0.000213822
10 *369:18 0.000147519
11 *369:12 0.000256965
12 *369:10 0.000276006
13 *505:A1 *387:18 1.08353e-06
14 *544:C1 *547:A 5.93773e-05
15 *649:A *386:16 9.24306e-06
16 *688:A *684:A 0
17 *369:10 *387:10 5.39612e-05
18 *369:10 *387:18 7.49473e-05
19 *369:12 *387:18 6.03186e-05
20 *369:18 *387:18 2.53552e-05
21 *369:73 *439:A1 3.94868e-06
22 *413:B2 *544:C1 1.19839e-05
23 *431:A *688:A 5.46432e-05
24 *431:B *688:A 2.83077e-06
25 *437:B1 *688:A 4.80114e-06
26 *439:A2 *544:C1 5.77309e-05
27 *439:A2 *369:18 2.30833e-05
28 *439:A2 *369:20 5.91602e-05
29 *439:C1 *369:18 7.28472e-06
30 *442:B1 *688:A 2.39679e-06
31 *444:B1 *688:A 3.1962e-06
32 *444:B1 *369:73 5.95143e-05
33 *504:A1 *544:C1 3.01196e-05
34 *504:B2 *369:73 3.5336e-06
35 *505:A2 *505:A1 2.39679e-06
36 *505:B1 *505:A1 3.09143e-06
37 *514:S *369:10 0
38 *549:A *544:C1 3.64037e-05
39 *551:A *688:A 8.43215e-07
40 *551:A *369:73 9.16739e-05
41 *568:S *544:C1 3.37909e-05
42 *650:S *649:A 2.36158e-05
43 *671:B *688:A 0
44 *671:B *369:73 4.43868e-06
45 *681:B *369:73 0
46 *706:D *369:10 1.68282e-05
47 *20:24 *369:73 3.71685e-05
48 *24:12 *369:10 0
49 *44:16 *544:C1 0.000103469
50 *48:16 *688:A 1.58933e-05
51 *100:39 *544:C1 6.23605e-06
52 *102:280 *369:10 0
53 *115:60 *544:C1 2.60941e-05
54 *115:73 *544:C1 7.73749e-05
55 *115:77 *505:A1 6.90366e-06
56 *115:77 *369:12 0
57 *115:77 *369:18 0
58 *117:42 *544:C1 1.80511e-05
59 *117:42 *369:18 1.68643e-06
60 *117:42 *369:20 2.19884e-05
61 *117:46 *505:A1 7.62825e-05
62 *122:16 *544:C1 5.80396e-05
63 *125:62 *505:A1 0
64 *150:20 *369:73 0
65 *182:47 *544:C1 2.07375e-05
66 *220:41 *544:C1 1.36793e-05
67 *220:43 *544:C1 7.11918e-06
68 *220:47 *544:C1 3.65322e-06
69 *299:54 *369:10 8.71434e-06
70 *299:54 *369:12 2.61812e-06
71 *335:12 *505:A1 4.32144e-07
72 *336:8 *688:A 0
73 *336:8 *369:73 1.04526e-05
74 *367:78 *544:C1 2.79015e-05
*RES
1 *706:Q *369:10 32.3214 
2 *369:10 *369:12 9.75 
3 *369:12 *369:18 11.5714 
4 *369:18 *369:20 5.75 
5 *369:20 *544:C1 48.02 
6 *369:20 *673:A 5 
7 *369:18 *505:A1 21.4286 
8 *369:12 *369:73 30.0357 
9 *369:73 *442:B2 5 
10 *369:73 *688:A 23.7143 
11 *369:10 *649:A 12.25 
*END

*D_NET *370 0.00360705
*CONN
*I *684:A I *D HA_X1
*I *671:A I *D HA_X1
*I *650:A I *D MUX2_X1
*I *413:A1 I *D AOI222_X1
*I *549:C1 I *D AOI221_X2
*I *455:C1 I *D AOI221_X1
*I *707:Q O *D DFFR_X1
*CAP
1 *684:A 0.000196757
2 *671:A 0
3 *650:A 0
4 *413:A1 2.50988e-06
5 *549:C1 9.31882e-05
6 *455:C1 0.000183902
7 *707:Q 0.000135424
8 *370:70 0.000253177
9 *370:61 6.96378e-05
10 *370:29 0.000330351
11 *370:14 0.000545502
12 *370:8 0.00027559
13 *455:C1 *439:A1 0.000441525
14 *455:C1 *669:A 4.55949e-09
15 *455:C1 *371:87 9.33812e-05
16 *370:8 *386:14 0.000103156
17 *370:8 *387:10 0
18 *370:14 *439:A1 1.91273e-05
19 *370:61 *386:16 1.25215e-05
20 *392:A *549:C1 6.18132e-07
21 *431:A *684:A 0.000143354
22 *431:B *684:A 0
23 *437:B1 *684:A 0
24 *437:B1 *370:70 0
25 *437:B2 *370:14 1.02941e-06
26 *439:B1 *370:29 1.53818e-05
27 *439:B2 *370:14 8.11962e-06
28 *439:C2 *370:14 2.23833e-06
29 *441:C1 *370:61 2.43548e-06
30 *441:C1 *370:70 1.22401e-05
31 *442:A *370:14 6.19915e-05
32 *455:A *455:C1 4.32144e-07
33 *455:B2 *455:C1 1.03334e-06
34 *484:B2 *549:C1 0
35 *492:A2 *549:C1 7.86518e-06
36 *650:B *370:8 4.24402e-05
37 *650:B *370:14 3.66089e-05
38 *650:B *370:61 2.86475e-06
39 *650:B *370:70 7.16188e-07
40 *650:S *370:61 1.80284e-05
41 *664:B *455:C1 1.38599e-05
42 *675:B *455:C1 2.57909e-05
43 *681:A *370:14 1.02478e-05
44 *688:A *684:A 0
45 *688:B *684:A 2.37916e-06
46 *6:20 *549:C1 3.21566e-05
47 *6:20 *370:14 1.16229e-06
48 *6:20 *370:29 0.000129444
49 *19:12 *370:8 0
50 *19:14 *370:8 0
51 *19:14 *370:14 3.14952e-06
52 *44:16 *370:29 7.26449e-07
53 *48:16 *684:A 2.89562e-05
54 *49:10 *684:A 1.32323e-05
55 *56:17 *684:A 7.16188e-07
56 *98:155 *370:70 0
57 *98:168 *370:70 0
58 *109:50 *549:C1 2.43548e-06
59 *115:60 *549:C1 1.23682e-05
60 *115:73 *370:29 3.37298e-05
61 *124:21 *413:A1 8.82069e-06
62 *128:51 *455:C1 2.75346e-06
63 *133:24 *684:A 8.79186e-06
64 *141:79 *455:C1 1.315e-05
65 *141:79 *370:14 1.3299e-07
66 *149:14 *684:A 2.18035e-05
67 *164:14 *455:C1 0
68 *182:47 *413:A1 8.82069e-06
69 *182:65 *549:C1 1.94947e-05
70 *230:16 *549:C1 7.79361e-06
71 *230:16 *370:29 4.6678e-06
72 *334:21 *455:C1 5.16272e-05
73 *344:8 *370:14 3.56913e-05
*RES
1 *707:Q *370:8 27.2143 
2 *370:8 *370:14 15.0714 
3 *370:14 *455:C1 41.0714 
4 *370:14 *370:29 14.66 
5 *370:29 *549:C1 20.23 
6 *370:29 *413:A1 15.5 
7 *370:8 *370:61 7.25 
8 *370:61 *650:A 5 
9 *370:61 *370:70 6.35715 
10 *370:70 *671:A 5 
11 *370:70 *684:A 39.5357 
*END

*D_NET *371 0.00406935
*CONN
*I *439:A1 I *D AOI222_X1
*I *683:A I *D HA_X1
*I *669:A I *D HA_X1
*I *469:A1 I *D NAND2_X1
*I *651:A I *D MUX2_X1
*I *552:A3 I *D AND3_X1
*I *557:A2 I *D AOI22_X1
*I *708:Q O *D DFFR_X1
*CAP
1 *439:A1 0.000160006
2 *683:A 0.000114908
3 *669:A 3.35578e-05
4 *469:A1 0
5 *651:A 0
6 *552:A3 0.000133028
7 *557:A2 0
8 *708:Q 9.90192e-06
9 *371:87 0.000330815
10 *371:76 0.00017588
11 *371:61 0.000257555
12 *371:28 0.000286928
13 *371:14 0.000215478
14 *371:8 0.000242613
15 *552:A3 *554:A1 4.55949e-09
16 *552:A3 *557:B1 6.38328e-07
17 *669:A *372:65 3.33088e-06
18 *371:14 *373:14 2.29066e-05
19 *371:28 *557:B1 7.16188e-07
20 *371:28 *560:A2 0
21 *371:28 *372:26 2.40671e-05
22 *371:61 *452:A1 0
23 *371:61 *466:A1 3.41945e-05
24 *371:61 *372:26 6.94703e-06
25 *371:76 *372:55 5.0051e-06
26 *439:C2 *439:A1 4.89331e-06
27 *455:A *371:76 9.11327e-06
28 *455:A *371:87 1.63516e-06
29 *455:B2 *669:A 1.75009e-05
30 *455:B2 *371:76 7.69139e-07
31 *455:B2 *371:87 9.06905e-06
32 *455:C1 *439:A1 0.000441525
33 *455:C1 *669:A 4.55949e-09
34 *455:C1 *371:87 9.33812e-05
35 *466:B1 *552:A3 3.25451e-05
36 *466:B1 *371:28 0
37 *468:B1 *371:61 1.34578e-05
38 *468:B1 *371:76 8.43215e-07
39 *468:B2 *371:61 1.0303e-05
40 *470:A3 *371:76 1.43244e-05
41 *504:B2 *439:A1 2.30003e-05
42 *509:C1 *439:A1 0
43 *552:A2 *552:A3 2.39679e-06
44 *555:B1 *552:A3 3.58853e-07
45 *556:C1 *552:A3 0.000103948
46 *556:C2 *552:A3 1.21326e-05
47 *557:A1 *552:A3 1.74882e-05
48 *558:A2 *371:28 0
49 *559:A *371:61 7.90084e-05
50 *559:A *371:76 2.27002e-05
51 *561:A1 *552:A3 7.54346e-07
52 *563:B1 *371:28 0
53 *583:B *439:A1 4.24381e-05
54 *600:S *371:28 1.76077e-05
55 *601:B2 *371:28 3.02351e-05
56 *602:B2 *371:28 0
57 *603:A *552:A3 0
58 *603:A *371:28 3.35654e-06
59 *605:A *683:A 0
60 *614:A2 *552:A3 0
61 *651:S *371:14 2.05797e-05
62 *651:S *371:28 1.21774e-06
63 *662:A *683:A 2.55787e-06
64 *667:B *371:61 2.30024e-06
65 *667:B *371:76 0
66 *669:B *669:A 7.72537e-06
67 *681:B *439:A1 9.44188e-05
68 *683:B *683:A 3.25263e-05
69 *690:B *371:61 3.18093e-05
70 *705:RN *371:61 0.000276269
71 *708:D *371:28 6.89712e-05
72 *44:16 *439:A1 4.92317e-06
73 *64:10 *371:14 1.39834e-05
74 *64:10 *371:61 2.37916e-06
75 *65:6 *371:8 1.3688e-06
76 *102:165 *371:14 6.78878e-05
77 *102:165 *371:61 7.5597e-05
78 *128:55 *371:76 9.4326e-06
79 *128:55 *371:87 2.72417e-06
80 *141:79 *371:76 0
81 *164:14 *439:A1 0
82 *164:14 *683:A 0.000129421
83 *164:14 *371:87 0
84 *234:6 *552:A3 1.37332e-05
85 *238:10 *552:A3 4.12911e-06
86 *287:20 *371:14 7.48525e-05
87 *287:20 *371:28 1.87418e-05
88 *299:82 *371:61 7.4768e-06
89 *338:16 *371:28 1.01754e-05
90 *345:27 *371:28 2.90163e-06
91 *360:79 *552:A3 4.89945e-06
92 *369:73 *439:A1 3.94868e-06
93 *370:14 *439:A1 1.91273e-05
*RES
1 *708:Q *371:8 10.75 
2 *371:8 *371:14 15.8929 
3 *371:14 *371:28 28.9643 
4 *371:28 *557:A2 5 
5 *371:28 *552:A3 32.7857 
6 *371:14 *651:A 5 
7 *371:8 *371:61 32 
8 *371:61 *469:A1 5 
9 *371:61 *371:76 15.4643 
10 *371:76 *669:A 13.75 
11 *371:76 *371:87 7.71429 
12 *371:87 *683:A 24.9286 
13 *371:87 *439:A1 36.9286 
*END

*D_NET *372 0.00289365
*CONN
*I *652:A I *D MUX2_X1
*I *603:B2 I *D AOI21_X1
*I *679:A I *D HA_X1
*I *452:A1 I *D AOI22_X1
*I *667:A I *D HA_X1
*I *562:A1 I *D AOI22_X1
*I *560:A2 I *D AOI22_X1
*I *709:Q O *D DFFR_X1
*CAP
1 *652:A 0.000102137
2 *603:B2 0
3 *679:A 0.000190505
4 *452:A1 0.000101523
5 *667:A 0
6 *562:A1 0
7 *560:A2 2.60267e-05
8 *709:Q 0.000237264
9 *372:94 0.000108972
10 *372:65 0.000189027
11 *372:55 0.000411513
12 *372:49 0.000174666
13 *372:26 0.000228963
14 *560:A2 *562:B2 4.16464e-05
15 *372:26 *466:A1 1.26075e-05
16 *372:26 *373:22 8.59011e-06
17 *449:B *452:A1 0
18 *452:B1 *452:A1 3.09411e-06
19 *453:A *452:A1 2.42419e-05
20 *453:B1 *452:A1 1.26998e-05
21 *453:B2 *452:A1 0
22 *455:A *452:A1 3.78407e-05
23 *455:A *372:65 4.52938e-05
24 *455:B1 *372:65 2.16072e-07
25 *455:B2 *372:65 1.43951e-05
26 *468:A1 *372:65 4.18985e-05
27 *468:B1 *372:65 4.24423e-05
28 *470:A3 *372:55 0
29 *475:B1 *679:A 0
30 *556:B *372:26 0
31 *557:B2 *372:26 2.25089e-06
32 *562:A2 *372:26 2.39679e-06
33 *562:B1 *372:26 2.52965e-06
34 *563:B1 *560:A2 6.65962e-05
35 *597:A *679:A 7.19036e-06
36 *597:B1 *679:A 5.81102e-06
37 *598:A *679:A 0
38 *598:B *679:A 1.4983e-05
39 *600:B *372:26 1.68643e-06
40 *600:S *372:26 5.30153e-06
41 *603:A *372:26 1.1209e-05
42 *603:B1 *652:A 1.21774e-06
43 *603:B1 *372:49 1.12139e-05
44 *603:B1 *372:55 0
45 *603:B1 *372:94 3.09411e-06
46 *605:A *679:A 0
47 *624:A2 *372:55 1.32414e-05
48 *667:B *452:A1 1.61446e-06
49 *667:B *679:A 1.40575e-05
50 *667:B *372:65 2.35752e-05
51 *669:A *372:65 3.33088e-06
52 *669:B *679:A 1.11556e-05
53 *669:B *372:65 8.43215e-07
54 *679:B *679:A 1.15841e-05
55 *689:A *372:26 7.2187e-06
56 *690:B *372:26 7.09711e-06
57 *709:D *372:49 0
58 *709:RN *372:26 7.90853e-06
59 *15:14 *452:A1 0
60 *141:31 *372:26 0
61 *141:48 *372:55 1.01048e-05
62 *141:79 *372:55 0.000200824
63 *157:37 *372:65 4.69533e-06
64 *235:10 *560:A2 2.02955e-06
65 *241:54 *679:A 1.26998e-05
66 *263:8 *652:A 3.24081e-05
67 *263:8 *372:55 1.72426e-05
68 *264:24 *652:A 9.98645e-06
69 *264:24 *372:55 0
70 *270:12 *679:A 5.4899e-05
71 *278:16 *652:A 8.04655e-07
72 *278:16 *372:26 0.000161767
73 *287:20 *652:A 4.9678e-06
74 *338:22 *652:A 0
75 *338:44 *372:55 1.26946e-05
76 *338:55 *652:A 1.59582e-06
77 *338:55 *372:55 0
78 *346:12 *372:55 2.3349e-05
79 *346:16 *652:A 1.48912e-05
80 *371:28 *560:A2 0
81 *371:28 *372:26 2.40671e-05
82 *371:61 *452:A1 0
83 *371:61 *372:26 6.94703e-06
84 *371:76 *372:55 5.0051e-06
*RES
1 *709:Q *372:26 42.9229 
2 *372:26 *560:A2 19.3214 
3 *372:26 *562:A1 5 
4 *709:Q *372:49 8.25 
5 *372:49 *372:55 28.5714 
6 *372:55 *372:65 22.2857 
7 *372:65 *667:A 5 
8 *372:65 *452:A1 16.8571 
9 *372:55 *679:A 26.6786 
10 *372:49 *372:94 0.75 
11 *372:94 *603:B2 5 
12 *372:94 *652:A 27.9286 
*END

*D_NET *373 0.0024914
*CONN
*I *642:A1 I *D NOR2_X1
*I *466:A1 I *D AOI22_X1
*I *690:A I *D HA_X1
*I *589:A1 I *D AOI22_X1
*I *612:A3 I *D NAND3_X1
*I *616:A2 I *D NAND2_X1
*I *615:A I *D INV_X1
*I *591:C2 I *D AOI221_X1
*I *710:Q O *D DFFR_X1
*CAP
1 *642:A1 5.88829e-05
2 *466:A1 0.000109012
3 *690:A 9.26729e-06
4 *589:A1 0
5 *612:A3 0
6 *616:A2 5.97185e-05
7 *615:A 0
8 *591:C2 2.45003e-05
9 *710:Q 0.000132608
10 *373:85 0.000141169
11 *373:47 0.000102314
12 *373:43 0.00010261
13 *373:37 0.000109719
14 *373:22 0.000208607
15 *373:14 0.000231016
16 *591:C2 *383:54 0
17 *616:A2 *658:B 0
18 *373:22 *562:B2 1.19839e-05
19 *373:37 *383:54 4.62715e-06
20 *373:37 *383:65 5.15239e-06
21 *373:43 *612:A2 1.16918e-05
22 *373:43 *614:A1 6.65423e-06
23 *373:43 *383:54 5.55534e-06
24 *373:47 *612:A2 5.05238e-06
25 *373:47 *383:31 2.64239e-05
26 *463:A1 *466:A1 0
27 *463:A2 *466:A1 8.90513e-06
28 *466:B1 *466:A1 9.758e-06
29 *466:B2 *466:A1 1.43238e-06
30 *560:A1 *591:C2 9.31531e-06
31 *560:A1 *373:22 6.56007e-06
32 *562:B1 *373:22 1.84283e-05
33 *562:B1 *373:37 1.20555e-05
34 *589:A2 *373:37 2.11347e-05
35 *589:B1 *373:37 1.0303e-05
36 *590:A2 *373:43 6.54588e-06
37 *591:A *591:C2 1.37673e-05
38 *591:A *373:37 1.6095e-06
39 *600:A *373:22 2.89636e-05
40 *600:B *690:A 1.86809e-06
41 *600:B *373:22 2.43297e-05
42 *602:B2 *466:A1 2.59223e-05
43 *602:B2 *690:A 1.26998e-05
44 *603:A *466:A1 1.87369e-06
45 *603:A *373:22 0
46 *612:A1 *373:43 9.77674e-06
47 *618:B1 *616:A2 8.22382e-07
48 *618:C2 *616:A2 3.25236e-05
49 *618:C2 *373:47 6.68482e-05
50 *626:B2 *616:A2 7.21602e-06
51 *627:A3 *373:47 2.95526e-05
52 *651:S *373:14 3.34038e-05
53 *690:B *466:A1 4.32537e-06
54 *690:B *690:A 8.43215e-07
55 *709:D *642:A1 0
56 *709:CK *642:A1 3.35822e-05
57 *14:10 *373:14 3.39795e-05
58 *14:10 *373:85 1.96586e-05
59 *65:6 *373:22 5.20514e-05
60 *102:132 *616:A2 2.43548e-06
61 *102:165 *373:14 2.15599e-05
62 *138:40 *591:C2 0
63 *272:16 *373:47 3.15028e-06
64 *274:12 *373:43 1.90574e-06
65 *274:12 *373:47 4.46014e-06
66 *277:12 *616:A2 2.41432e-06
67 *287:20 *373:14 3.74029e-06
68 *299:82 *466:A1 6.2767e-05
69 *299:82 *642:A1 3.49085e-06
70 *299:88 *642:A1 2.71253e-05
71 *299:97 *642:A1 1.21774e-06
72 *338:16 *642:A1 1.43238e-06
73 *345:12 *373:14 7.99561e-05
74 *345:12 *373:85 6.40358e-05
75 *359:166 *373:43 0.000103121
76 *359:166 *373:47 6.11333e-05
77 *360:87 *373:43 2.16603e-05
78 *361:264 *373:37 2.71702e-06
79 *361:264 *373:43 3.81605e-05
80 *371:14 *373:14 2.29066e-05
81 *371:61 *466:A1 3.41945e-05
82 *372:26 *466:A1 1.26075e-05
83 *372:26 *373:22 8.59011e-06
*RES
1 *710:Q *373:14 21.9643 
2 *373:14 *373:22 23.6072 
3 *373:22 *591:C2 8.53572 
4 *373:22 *373:37 6.67857 
5 *373:37 *373:43 14.6786 
6 *373:43 *373:47 12.0357 
7 *373:47 *615:A 5 
8 *373:47 *616:A2 21.8571 
9 *373:43 *612:A3 10 
10 *373:37 *589:A1 5 
11 *373:14 *373:85 8.64286 
12 *373:85 *690:A 6.25 
13 *373:85 *466:A1 30.5 
14 *710:Q *642:A1 27.3929 
*END

*D_NET *104 0.000172352
*CONN
*P reg_write_out O
*I *398:Z O *D BUF_X1
*CAP
1 reg_write_out 6.10508e-05
2 *398:Z 6.10508e-05
3 reg_write_out dest_out[3] 4.03593e-05
4 reg_write_out pc_out[0] 9.89166e-06
5 *102:28 reg_write_out 0
*RES
1 *398:Z reg_write_out 24.4107 
*END

*D_NET *355 0.000206022
*CONN
*P reset I
*I *694:A I *D BUF_X1
*CAP
1 reset 0.000100351
2 *694:A 0.000100351
3 pc_out[7] *694:A 5.31999e-06
*RES
1 reset *694:A 26.1464 
*END

*D_NET *376 0.000867817
*CONN
*I *653:B I *D MUX2_X1
*I *539:C2 I *D AOI221_X2
*I *711:Q O *D DFFR_X1
*CAP
1 *653:B 4.82854e-06
2 *539:C2 0.000119321
3 *711:Q 0.000117976
4 *376:12 0.000242126
5 *501:A *653:B 7.72537e-06
6 *539:B2 *539:C2 0
7 *539:C1 *539:C2 2.75346e-06
8 *540:A *539:C2 1.21774e-06
9 *646:A *539:C2 3.95004e-05
10 *653:A *539:C2 1.36822e-05
11 *687:A *539:C2 0
12 *703:D *539:C2 8.06346e-05
13 *711:CK *376:12 0.000145723
14 *98:50 *376:12 6.78878e-05
15 *102:14 *539:C2 1.50873e-06
16 *102:14 *376:12 2.06929e-06
17 *298:79 *539:C2 2.74207e-06
18 *298:79 *376:12 4.51786e-07
19 *366:12 *539:C2 1.45779e-05
20 *366:12 *653:B 3.09143e-06
21 *366:16 *539:C2 0
22 *366:18 *539:C2 0
*RES
1 *711:Q *376:12 26.1786 
2 *376:12 *539:C2 25.3571 
3 *376:12 *653:B 10.75 
*END

*D_NET *377 0.000428021
*CONN
*I *654:B I *D MUX2_X1
*I *529:A I *D INV_X1
*I *712:Q O *D DFFR_X1
*CAP
1 *654:B 0
2 *529:A 4.61097e-05
3 *712:Q 0.000149187
4 *377:8 0.000195296
5 *502:A1 *529:A 0
6 *502:A2 *529:A 0
7 *502:A3 *529:A 1.88334e-06
8 *692:A *377:8 0
9 *215:20 *529:A 1.95635e-06
10 *298:87 *529:A 9.40738e-06
11 *298:87 *377:8 6.5925e-07
12 *341:23 *529:A 9.5257e-06
13 *341:23 *377:8 1.3996e-05
*RES
1 *712:Q *377:8 25.1786 
2 *377:8 *529:A 15.6786 
3 *377:8 *654:B 10 
*END

*D_NET *378 0.00063758
*CONN
*I *571:A1 I *D OR2_X1
*I *572:A1 I *D AOI22_X1
*I *655:B I *D MUX2_X1
*I *713:Q O *D DFFR_X1
*CAP
1 *571:A1 4.33736e-05
2 *572:A1 0
3 *655:B 2.96681e-05
4 *713:Q 3.57528e-05
5 *378:29 0.000103952
6 *378:10 0.000125999
7 pc_out[2] *378:10 3.35155e-05
8 *424:A *571:A1 4.97191e-06
9 *424:A *655:B 7.16188e-07
10 *424:A *378:29 2.13778e-05
11 *499:A1 *378:29 0
12 *571:A2 *571:A1 6.30856e-06
13 *572:A2 *571:A1 2.39679e-06
14 *655:A *655:B 7.04452e-05
15 *655:A *378:10 7.66298e-05
16 *691:A *378:10 1.15878e-05
17 *693:A *571:A1 0
18 *693:A *378:29 0
19 *700:CK *655:B 2.64346e-05
20 *700:CK *378:10 1.74095e-05
21 *700:CK *378:29 1.28122e-06
22 *713:RN *378:10 0
23 *102:26 *378:10 2.30282e-06
24 *212:12 *571:A1 2.12838e-05
25 *245:16 *571:A1 2.17261e-06
*RES
1 *713:Q *378:10 15.8929 
2 *378:10 *655:B 15.3929 
3 *378:10 *378:29 11.9286 
4 *378:29 *572:A1 5 
5 *378:29 *571:A1 20.75 
*END

*D_NET *379 0.00134983
*CONN
*I *656:B I *D MUX2_X1
*I *544:B2 I *D AOI221_X2
*I *714:Q O *D DFFR_X1
*CAP
1 *656:B 1.13465e-05
2 *544:B2 0.000250635
3 *714:Q 0.000148554
4 *379:8 0.000410536
5 *544:B2 *542:A 0
6 *544:B2 *384:8 0
7 alu_result_out[4] *379:8 0
8 *492:A1 *544:B2 1.10947e-05
9 *543:A4 *544:B2 2.5273e-05
10 *544:A *544:B2 6.19568e-06
11 *568:A *544:B2 3.52213e-05
12 *645:A *544:B2 0
13 *645:A *379:8 0
14 *656:A *544:B2 1.47858e-06
15 *656:A *656:B 1.83053e-06
16 *665:B *544:B2 8.14241e-05
17 *714:CK *379:8 6.92212e-05
18 *3:12 *379:8 0
19 *3:20 *544:B2 0
20 *4:10 *544:B2 0.000166938
21 *98:18 *544:B2 5.47929e-05
22 *98:18 *379:8 1.2203e-05
23 *98:22 *656:B 7.72537e-06
24 *157:68 *544:B2 2.12131e-05
25 *220:47 *544:B2 1.27666e-06
26 *223:16 *544:B2 3.28714e-05
27 *343:24 *544:B2 0
28 *367:10 *379:8 0
29 *367:25 *544:B2 0
*RES
1 *714:Q *379:8 26.5357 
2 *379:8 *544:B2 42.5 
3 *379:8 *656:B 11.25 
*END

*D_NET *380 0.00133715
*CONN
*I *657:B I *D MUX2_X1
*I *549:B2 I *D AOI221_X2
*I *715:Q O *D DFFR_X1
*CAP
1 *657:B 0
2 *549:B2 0
3 *715:Q 0.000198443
4 *380:42 0.000257251
5 *380:18 0.000455694
6 *380:18 *385:16 1.49198e-05
7 *380:42 *542:B 6.41286e-06
8 *504:A1 *380:42 1.32348e-05
9 *512:B *380:42 2.82592e-05
10 *549:B1 *380:42 2.39679e-06
11 *588:A *380:18 2.39679e-06
12 *588:A *380:42 4.41686e-05
13 *682:A *380:42 1.95583e-05
14 *715:D *380:18 9.57492e-07
15 *715:RN *380:18 9.07146e-05
16 *720:RN *380:18 9.30875e-05
17 *98:12 *380:42 0
18 *100:39 *380:42 1.66234e-05
19 *109:50 *380:42 9.01846e-07
20 *133:18 *380:42 6.952e-06
21 *230:16 *380:42 3.09143e-06
22 *343:20 *380:18 0
23 *344:25 *380:42 7.48941e-05
24 *367:78 *380:42 7.19036e-06
*RES
1 *715:Q *380:18 38.8214 
2 *380:18 *380:42 45.1257 
3 *380:42 *549:B2 5 
4 *380:18 *657:B 5 
*END

*D_NET *381 0.000861323
*CONN
*I *557:B1 I *D AOI22_X1
*I *554:A1 I *D AND2_X1
*I *658:B I *D MUX2_X1
*I *716:Q O *D DFFR_X1
*CAP
1 *557:B1 4.11064e-05
2 *554:A1 3.31853e-05
3 *658:B 0.000104087
4 *716:Q 0
5 *381:21 0.000196637
6 *381:6 0.000226432
7 *658:B *616:A1 1.32774e-05
8 *381:21 *616:A1 1.10183e-05
9 *381:21 *383:65 1.09684e-05
10 *552:A3 *554:A1 4.55949e-09
11 *552:A3 *557:B1 6.38328e-07
12 *553:A1 *554:A1 8.43215e-07
13 *554:A2 *554:A1 2.86649e-06
14 *555:B2 *554:A1 0
15 *556:A *554:A1 3.23338e-05
16 *556:A *557:B1 2.13169e-05
17 *556:C1 *554:A1 2.16072e-07
18 *556:C1 *557:B1 4.73284e-06
19 *557:A1 *557:B1 1.83315e-05
20 *557:A1 *381:21 6.40019e-06
21 *557:B2 *557:B1 3.90891e-05
22 *561:A1 *381:21 0
23 *562:A2 *557:B1 3.28137e-06
24 *589:A2 *381:21 8.25417e-06
25 *589:B1 *381:21 3.12145e-06
26 *616:A2 *658:B 0
27 *618:C2 *658:B 5.20238e-07
28 *659:S *658:B 3.89107e-05
29 *716:D *658:B 2.86102e-06
30 *102:132 *658:B 6.87788e-06
31 *234:6 *554:A1 0
32 *235:10 *381:21 2.78389e-06
33 *238:10 *381:21 2.70495e-06
34 *287:18 *658:B 1.88334e-06
35 *287:18 *381:21 1.52538e-05
36 *361:279 *381:21 1.06702e-05
37 *371:28 *557:B1 7.16188e-07
*RES
1 *716:Q *381:6 10 
2 *381:6 *658:B 21.4643 
3 *381:6 *381:21 18.1429 
4 *381:21 *554:A1 8.75 
5 *381:21 *557:B1 11.75 
*END

*D_NET *382 0.000683351
*CONN
*I *560:B1 I *D AOI22_X1
*I *562:B2 I *D AOI22_X1
*I *659:B I *D MUX2_X1
*I *717:Q O *D DFFR_X1
*CAP
1 *560:B1 0
2 *562:B2 4.57298e-05
3 *659:B 6.95044e-05
4 *717:Q 1.47365e-05
5 *382:25 9.54769e-05
6 *382:8 0.000133988
7 *560:A1 *562:B2 2.52965e-06
8 *560:A2 *562:B2 4.16464e-05
9 *560:B2 *562:B2 1.25189e-05
10 *562:B1 *562:B2 1.19839e-05
11 *563:A *562:B2 1.72426e-05
12 *563:B1 *562:B2 7.35912e-06
13 *563:B1 *382:25 5.73772e-06
14 *708:D *659:B 3.54727e-05
15 *708:D *382:25 9.55059e-06
16 *717:D *659:B 2.93686e-05
17 *65:6 *382:25 5.11118e-06
18 *102:145 *659:B 3.32354e-05
19 *235:10 *562:B2 1.25324e-05
20 *287:18 *659:B 2.96955e-05
21 *287:18 *382:8 2.20001e-07
22 *287:18 *382:25 4.24402e-05
23 *338:16 *382:8 1.0499e-05
24 *338:16 *382:25 4.78746e-06
25 *345:27 *659:B 0
26 *373:22 *562:B2 1.19839e-05
*RES
1 *717:Q *382:8 11.25 
2 *382:8 *659:B 19.7857 
3 *382:8 *382:25 11.3929 
4 *382:25 *562:B2 21.8214 
5 *382:25 *560:B1 5 
*END

*D_NET *383 0.00216051
*CONN
*I *612:A2 I *D NAND3_X1
*I *591:B2 I *D AOI221_X1
*I *616:A1 I *D NAND2_X1
*I *589:B2 I *D AOI22_X1
*I *614:A1 I *D NAND2_X1
*I *640:A1 I *D AND2_X1
*I *718:Q O *D DFFR_X1
*CAP
1 *612:A2 1.18198e-05
2 *591:B2 2.44531e-05
3 *616:A1 8.03814e-05
4 *589:B2 0
5 *614:A1 1.44574e-05
6 *640:A1 0.000120957
7 *718:Q 1.35677e-05
8 *383:65 0.000138789
9 *383:54 7.16739e-05
10 *383:41 0.000115444
11 *383:31 0.00035241
12 *383:6 0.000411847
13 *405:A *383:31 3.30813e-05
14 *517:A *383:31 0
15 *517:S *383:31 1.39839e-06
16 *519:A1 *383:31 8.94571e-06
17 *522:B2 *383:31 1.37673e-05
18 *561:A1 *383:65 2.08098e-06
19 *589:B1 *383:65 1.08381e-05
20 *590:A2 *383:41 1.96924e-05
21 *590:A2 *383:54 6.54588e-06
22 *591:A *591:B2 1.39319e-05
23 *591:A *383:65 4.12459e-06
24 *591:B1 *591:B2 2.75346e-06
25 *591:C2 *383:54 0
26 *612:A1 *612:A2 7.19036e-06
27 *614:A2 *614:A1 6.65423e-06
28 *614:A2 *383:54 5.05327e-06
29 *617:B1 *616:A1 1.60056e-05
30 *617:B2 *616:A1 2.75346e-06
31 *618:A *383:31 6.38328e-07
32 *618:C1 *383:41 6.70546e-08
33 *618:C2 *616:A1 3.95726e-05
34 *627:A1 *612:A2 8.43215e-07
35 *627:A2 *591:B2 3.83783e-05
36 *627:A2 *383:41 1.67442e-05
37 *627:A3 *383:41 1.24586e-05
38 *640:A2 *640:A1 2.75346e-06
39 *658:B *616:A1 1.32774e-05
40 *696:D *383:31 1.77697e-05
41 *696:RN *383:6 1.12308e-05
42 *696:RN *383:31 7.37878e-05
43 *698:D *383:31 9.03497e-05
44 *718:RN *640:A1 3.58692e-05
45 *718:CK *640:A1 0
46 *1:6 *383:31 1.20183e-05
47 *1:14 *383:31 4.6613e-07
48 *1:18 *383:31 1.00571e-05
49 *1:157 *383:31 1.50235e-05
50 *99:57 *640:A1 0
51 *99:70 *640:A1 1.0469e-05
52 *102:32 *640:A1 5.64879e-06
53 *102:115 *383:31 0
54 *102:124 *383:31 0
55 *102:132 *616:A1 1.43238e-06
56 *111:14 *383:31 0
57 *111:29 *612:A2 2.52965e-06
58 *111:29 *383:31 2.50637e-05
59 *138:40 *383:54 2.96441e-06
60 *138:51 *616:A1 2.21845e-05
61 *138:51 *383:54 2.39679e-06
62 *138:51 *383:65 2.36735e-05
63 *272:16 *612:A2 6.42262e-07
64 *272:16 *383:31 3.38442e-05
65 *274:12 *612:A2 4.80378e-06
66 *278:16 *383:41 3.32587e-06
67 *298:12 *640:A1 8.4663e-06
68 *359:166 *383:41 2.2921e-05
69 *361:8 *383:31 1.07428e-06
70 *373:37 *383:54 4.62715e-06
71 *373:37 *383:65 5.15239e-06
72 *373:43 *612:A2 1.16918e-05
73 *373:43 *614:A1 6.65423e-06
74 *373:43 *383:54 5.55534e-06
75 *373:47 *612:A2 5.05238e-06
76 *373:47 *383:31 2.64239e-05
77 *381:21 *616:A1 1.10183e-05
78 *381:21 *383:65 1.09684e-05
*RES
1 *718:Q *383:6 6.25 
2 *383:6 *640:A1 28.1786 
3 *383:6 *383:31 41.6072 
4 *383:31 *383:41 20.4071 
5 *383:41 *614:A1 6.75 
6 *383:41 *383:54 4.42857 
7 *383:54 *589:B2 5 
8 *383:54 *383:65 10.2143 
9 *383:65 *616:A1 20.4643 
10 *383:65 *591:B2 13.75 
11 *383:31 *612:A2 11.7143 
*END

*D_NET *384 0.000977108
*CONN
*I *511:A I *D MUX2_X1
*I *542:A I *D MUX2_X1
*I *719:Q O *D DFFR_X1
*CAP
1 *511:A 6.17351e-06
2 *542:A 0.000107735
3 *719:Q 7.4512e-05
4 *384:8 0.00018842
5 *542:A *542:B 2.23931e-05
6 *384:8 *542:B 6.44376e-06
7 alu_result_out[4] *384:8 0.000186136
8 *428:B2 *542:A 1.02698e-05
9 *484:B2 *542:A 3.82234e-06
10 *511:S *511:A 2.39679e-06
11 *542:S *542:A 2.75346e-06
12 *543:A4 *542:A 1.12721e-05
13 *544:B2 *542:A 0
14 *544:B2 *384:8 0
15 *569:A *511:A 0
16 *645:A *384:8 0.000230858
17 *719:D *384:8 5.39404e-05
18 *4:10 *542:A 0
19 *128:26 *511:A 0
20 *182:65 *542:A 7.72537e-06
21 *343:20 *511:A 3.09143e-06
22 *343:24 *384:8 5.91639e-05
*RES
1 *719:Q *384:8 27.2143 
2 *384:8 *542:A 21.8571 
3 *384:8 *511:A 10.75 
*END

*D_NET *385 0.00127516
*CONN
*I *547:A I *D MUX2_X1
*I *512:A I *D MUX2_X1
*I *720:Q O *D DFFR_X1
*CAP
1 *547:A 0.000149623
2 *512:A 1.00521e-05
3 *720:Q 0.000154852
4 *385:16 0.000314527
5 *421:A *547:A 5.93256e-05
6 *504:A1 *547:A 5.52959e-06
7 *505:A2 *547:A 8.2264e-05
8 *512:B *385:16 4.40629e-05
9 *544:C1 *547:A 5.93773e-05
10 *547:S *547:A 2.75346e-06
11 *550:A2 *547:A 1.64981e-06
12 *588:A *385:16 5.39687e-05
13 *682:A *385:16 0
14 *715:D *385:16 1.61721e-05
15 *715:RN *385:16 0
16 *720:RN *385:16 5.11249e-06
17 *20:22 *547:A 8.55471e-06
18 *98:122 *512:A 2.25089e-06
19 *98:122 *547:A 3.34754e-05
20 *98:122 *385:16 7.75465e-06
21 *98:137 *385:16 9.86543e-06
22 *102:244 *385:16 8.83061e-06
23 *122:16 *547:A 7.81939e-05
24 *124:23 *512:A 7.72537e-06
25 *128:26 *512:A 0
26 *128:26 *547:A 2.56243e-06
27 *228:28 *547:A 5.59897e-05
28 *241:22 *547:A 3.3663e-06
29 *344:25 *385:16 7.9142e-05
30 *368:51 *547:A 3.25936e-06
31 *380:18 *385:16 1.49198e-05
*RES
1 *720:Q *385:16 35.1072 
2 *385:16 *512:A 6.25 
3 *385:16 *547:A 36.1786 
*END

*D_NET *386 0.00197411
*CONN
*I *513:A I *D MUX2_X1
*I *542:B I *D MUX2_X1
*I *721:Q O *D DFFR_X1
*CAP
1 *513:A 0
2 *542:B 0.000289056
3 *721:Q 0.000261863
4 *386:16 0.000404004
5 *386:14 0.000376812
6 *386:14 *387:10 5.01029e-05
7 *428:A *542:B 7.45516e-06
8 *428:B2 *542:B 5.56213e-05
9 *441:C1 *386:14 0
10 *482:A1 *542:B 2.8946e-05
11 *484:B2 *542:B 3.02372e-05
12 *492:A1 *542:B 0
13 *492:A2 *542:B 1.04473e-05
14 *511:S *542:B 2.1335e-05
15 *513:S *386:16 3.90865e-05
16 *542:A *542:B 2.23931e-05
17 *649:A *386:16 9.24306e-06
18 *649:B *386:16 6.02276e-05
19 *650:B *386:14 2.96955e-05
20 *650:B *386:16 2.52965e-06
21 *650:S *386:16 2.10346e-05
22 *707:D *386:14 2.03657e-05
23 *721:RN *386:14 0
24 *98:144 *386:16 0
25 *98:155 *386:16 0
26 *98:168 *386:14 0
27 *133:18 *542:B 0
28 *299:54 *542:B 0.000102239
29 *344:14 *386:16 2.87704e-06
30 *370:8 *386:14 0.000103156
31 *370:61 *386:16 1.25215e-05
32 *380:42 *542:B 6.41286e-06
33 *384:8 *542:B 6.44376e-06
*RES
1 *721:Q *386:14 46.4643 
2 *386:14 *386:16 14.75 
3 *386:16 *542:B 47.2071 
4 *386:16 *513:A 5 
*END

*D_NET *387 0.00181356
*CONN
*I *514:A I *D MUX2_X1
*I *547:B I *D MUX2_X1
*I *722:Q O *D DFFR_X1
*CAP
1 *514:A 1.08367e-05
2 *547:B 5.06448e-05
3 *722:Q 0.000201984
4 *387:18 0.000300785
5 *387:10 0.000462961
6 *439:B1 *387:18 9.85879e-06
7 *439:B2 *387:18 4.12555e-06
8 *439:C1 *387:18 9.62001e-06
9 *439:C2 *387:18 3.66954e-06
10 *441:A *387:18 0.000164485
11 *504:A1 *547:B 3.34038e-05
12 *505:A1 *387:18 1.08353e-06
13 *505:A2 *547:B 3.28688e-05
14 *505:A2 *387:18 0
15 *514:S *514:A 1.82068e-05
16 *546:A *387:18 2.51631e-06
17 *19:12 *387:10 1.41532e-05
18 *19:14 *387:10 8.59171e-06
19 *19:14 *387:18 5.10791e-05
20 *78:14 *514:A 7.40328e-06
21 *117:42 *387:18 3.10755e-05
22 *117:46 *387:18 2.67493e-06
23 *128:34 *547:B 2.72587e-05
24 *335:12 *387:18 8.48335e-05
25 *368:51 *547:B 1.47518e-05
26 *369:10 *387:10 5.39612e-05
27 *369:10 *387:18 7.49473e-05
28 *369:12 *387:18 6.03186e-05
29 *369:18 *387:18 2.53552e-05
30 *370:8 *387:10 0
31 *386:14 *387:10 5.01029e-05
*RES
1 *722:Q *387:10 33.8929 
2 *387:10 *387:18 46.9643 
3 *387:18 *547:B 17.5714 
4 *387:10 *514:A 11.75 
*END
