*SPEF "ieee 1481-1999"
*DESIGN "lfsr_4bit"
*DATE "10:01:37 Sunday August 02, 2026"
*VENDOR "The OpenROAD Project"
*PROGRAM "OpenROAD"
*VERSION "26Q3-904-geaaa6e36cb"
*DESIGN_FLOW "NAME_SCOPE LOCAL" "PIN_CAP NONE"
*DIVIDER /
*DELIMITER :
*BUS_DELIMITER []
*T_UNIT 1 NS
*C_UNIT 1 PF
*R_UNIT 1 OHM
*L_UNIT 1 HENRY

*NAME_MAP
*1 _0_
*2 _1_
*3 _2_
*4 _3_
*5 _4_
*6 _5_
*7 clk
*20 clknet_0_clk
*21 clknet_1_0__leaf_clk
*22 clknet_1_1__leaf_clk
*12 net1
*8 net2
*9 net3
*10 net4
*11 net5
*23 net6
*24 net7
*25 net8
*16 q[0]
*17 q[1]
*18 q[2]
*19 q[3]
*15 reset
*184 FILLER_0_1
*188 FILLER_0_129
*189 FILLER_0_161
*190 FILLER_0_193
*191 FILLER_0_225
*192 FILLER_0_257
*193 FILLER_0_289
*194 FILLER_0_321
*185 FILLER_0_33
*195 FILLER_0_353
*196 FILLER_0_385
*197 FILLER_0_417
*198 FILLER_0_449
*199 FILLER_0_481
*200 FILLER_0_513
*201 FILLER_0_521
*202 FILLER_0_523
*186 FILLER_0_65
*187 FILLER_0_97
*374 FILLER_10_1
*378 FILLER_10_129
*379 FILLER_10_161
*380 FILLER_10_193
*381 FILLER_10_225
*382 FILLER_10_257
*383 FILLER_10_289
*384 FILLER_10_321
*375 FILLER_10_33
*385 FILLER_10_353
*386 FILLER_10_385
*387 FILLER_10_417
*388 FILLER_10_449
*389 FILLER_10_481
*390 FILLER_10_513
*391 FILLER_10_521
*392 FILLER_10_523
*376 FILLER_10_65
*377 FILLER_10_97
*393 FILLER_11_1
*397 FILLER_11_129
*398 FILLER_11_161
*399 FILLER_11_193
*400 FILLER_11_225
*401 FILLER_11_257
*402 FILLER_11_289
*403 FILLER_11_321
*394 FILLER_11_33
*404 FILLER_11_353
*405 FILLER_11_385
*406 FILLER_11_417
*407 FILLER_11_449
*408 FILLER_11_481
*409 FILLER_11_513
*410 FILLER_11_521
*411 FILLER_11_523
*395 FILLER_11_65
*396 FILLER_11_97
*412 FILLER_12_1
*416 FILLER_12_129
*417 FILLER_12_161
*418 FILLER_12_193
*419 FILLER_12_225
*420 FILLER_12_257
*421 FILLER_12_289
*422 FILLER_12_321
*413 FILLER_12_33
*423 FILLER_12_353
*424 FILLER_12_385
*425 FILLER_12_417
*426 FILLER_12_449
*427 FILLER_12_481
*428 FILLER_12_513
*429 FILLER_12_521
*430 FILLER_12_523
*414 FILLER_12_65
*415 FILLER_12_97
*431 FILLER_13_1
*435 FILLER_13_129
*436 FILLER_13_161
*437 FILLER_13_193
*438 FILLER_13_225
*439 FILLER_13_257
*440 FILLER_13_289
*441 FILLER_13_321
*432 FILLER_13_33
*442 FILLER_13_353
*443 FILLER_13_385
*444 FILLER_13_417
*445 FILLER_13_449
*446 FILLER_13_481
*447 FILLER_13_513
*448 FILLER_13_521
*449 FILLER_13_523
*433 FILLER_13_65
*434 FILLER_13_97
*450 FILLER_14_1
*454 FILLER_14_129
*455 FILLER_14_161
*456 FILLER_14_193
*457 FILLER_14_225
*458 FILLER_14_257
*459 FILLER_14_289
*460 FILLER_14_321
*451 FILLER_14_33
*461 FILLER_14_353
*462 FILLER_14_385
*463 FILLER_14_417
*464 FILLER_14_449
*465 FILLER_14_481
*466 FILLER_14_513
*467 FILLER_14_521
*468 FILLER_14_523
*452 FILLER_14_65
*453 FILLER_14_97
*469 FILLER_15_1
*473 FILLER_15_129
*474 FILLER_15_161
*475 FILLER_15_193
*476 FILLER_15_225
*477 FILLER_15_257
*478 FILLER_15_289
*479 FILLER_15_321
*470 FILLER_15_33
*480 FILLER_15_353
*481 FILLER_15_385
*482 FILLER_15_417
*483 FILLER_15_449
*484 FILLER_15_481
*485 FILLER_15_513
*486 FILLER_15_521
*487 FILLER_15_523
*471 FILLER_15_65
*472 FILLER_15_97
*488 FILLER_16_1
*492 FILLER_16_129
*493 FILLER_16_161
*494 FILLER_16_193
*495 FILLER_16_225
*496 FILLER_16_257
*497 FILLER_16_289
*498 FILLER_16_321
*489 FILLER_16_33
*499 FILLER_16_353
*500 FILLER_16_385
*501 FILLER_16_417
*502 FILLER_16_449
*503 FILLER_16_481
*504 FILLER_16_513
*505 FILLER_16_521
*506 FILLER_16_523
*490 FILLER_16_65
*491 FILLER_16_97
*507 FILLER_17_1
*511 FILLER_17_129
*512 FILLER_17_161
*513 FILLER_17_193
*514 FILLER_17_225
*515 FILLER_17_257
*516 FILLER_17_289
*517 FILLER_17_321
*508 FILLER_17_33
*518 FILLER_17_353
*519 FILLER_17_385
*520 FILLER_17_417
*521 FILLER_17_449
*522 FILLER_17_481
*523 FILLER_17_513
*524 FILLER_17_521
*525 FILLER_17_523
*509 FILLER_17_65
*510 FILLER_17_97
*526 FILLER_18_1
*530 FILLER_18_129
*531 FILLER_18_161
*532 FILLER_18_193
*533 FILLER_18_225
*534 FILLER_18_257
*535 FILLER_18_289
*536 FILLER_18_321
*527 FILLER_18_33
*537 FILLER_18_353
*538 FILLER_18_385
*539 FILLER_18_417
*540 FILLER_18_449
*541 FILLER_18_481
*542 FILLER_18_513
*543 FILLER_18_521
*544 FILLER_18_523
*528 FILLER_18_65
*529 FILLER_18_97
*545 FILLER_19_1
*549 FILLER_19_129
*550 FILLER_19_161
*551 FILLER_19_193
*552 FILLER_19_225
*553 FILLER_19_257
*554 FILLER_19_289
*555 FILLER_19_321
*546 FILLER_19_33
*556 FILLER_19_353
*557 FILLER_19_385
*558 FILLER_19_417
*559 FILLER_19_449
*560 FILLER_19_481
*561 FILLER_19_513
*562 FILLER_19_521
*563 FILLER_19_523
*547 FILLER_19_65
*548 FILLER_19_97
*203 FILLER_1_1
*207 FILLER_1_129
*208 FILLER_1_161
*209 FILLER_1_193
*210 FILLER_1_225
*211 FILLER_1_257
*212 FILLER_1_289
*213 FILLER_1_321
*204 FILLER_1_33
*214 FILLER_1_353
*215 FILLER_1_385
*216 FILLER_1_417
*217 FILLER_1_449
*218 FILLER_1_481
*219 FILLER_1_513
*220 FILLER_1_521
*221 FILLER_1_523
*205 FILLER_1_65
*206 FILLER_1_97
*564 FILLER_20_1
*568 FILLER_20_129
*569 FILLER_20_161
*570 FILLER_20_193
*571 FILLER_20_225
*572 FILLER_20_257
*573 FILLER_20_289
*574 FILLER_20_321
*565 FILLER_20_33
*575 FILLER_20_353
*576 FILLER_20_385
*577 FILLER_20_417
*578 FILLER_20_449
*579 FILLER_20_481
*580 FILLER_20_513
*581 FILLER_20_521
*582 FILLER_20_523
*566 FILLER_20_65
*567 FILLER_20_97
*583 FILLER_21_1
*587 FILLER_21_129
*588 FILLER_21_161
*589 FILLER_21_193
*590 FILLER_21_225
*591 FILLER_21_257
*592 FILLER_21_289
*593 FILLER_21_321
*584 FILLER_21_33
*594 FILLER_21_353
*595 FILLER_21_385
*596 FILLER_21_417
*597 FILLER_21_449
*598 FILLER_21_481
*599 FILLER_21_513
*600 FILLER_21_521
*601 FILLER_21_523
*585 FILLER_21_65
*586 FILLER_21_97
*602 FILLER_22_1
*606 FILLER_22_129
*607 FILLER_22_161
*608 FILLER_22_193
*609 FILLER_22_225
*610 FILLER_22_257
*611 FILLER_22_289
*612 FILLER_22_321
*603 FILLER_22_33
*613 FILLER_22_353
*614 FILLER_22_385
*615 FILLER_22_417
*616 FILLER_22_449
*617 FILLER_22_481
*618 FILLER_22_513
*619 FILLER_22_521
*620 FILLER_22_523
*604 FILLER_22_65
*605 FILLER_22_97
*621 FILLER_23_1
*625 FILLER_23_129
*626 FILLER_23_161
*627 FILLER_23_193
*628 FILLER_23_225
*629 FILLER_23_257
*630 FILLER_23_289
*631 FILLER_23_321
*622 FILLER_23_33
*632 FILLER_23_353
*633 FILLER_23_385
*634 FILLER_23_417
*635 FILLER_23_449
*636 FILLER_23_481
*637 FILLER_23_513
*638 FILLER_23_521
*639 FILLER_23_523
*623 FILLER_23_65
*624 FILLER_23_97
*640 FILLER_24_1
*644 FILLER_24_129
*645 FILLER_24_161
*646 FILLER_24_193
*647 FILLER_24_225
*648 FILLER_24_257
*649 FILLER_24_289
*650 FILLER_24_321
*641 FILLER_24_33
*651 FILLER_24_353
*652 FILLER_24_385
*653 FILLER_24_417
*654 FILLER_24_449
*655 FILLER_24_481
*656 FILLER_24_513
*657 FILLER_24_521
*658 FILLER_24_523
*642 FILLER_24_65
*643 FILLER_24_97
*659 FILLER_25_1
*663 FILLER_25_129
*664 FILLER_25_161
*665 FILLER_25_193
*666 FILLER_25_225
*667 FILLER_25_257
*668 FILLER_25_289
*669 FILLER_25_321
*660 FILLER_25_33
*670 FILLER_25_353
*671 FILLER_25_385
*672 FILLER_25_417
*673 FILLER_25_449
*674 FILLER_25_481
*675 FILLER_25_513
*676 FILLER_25_521
*677 FILLER_25_523
*661 FILLER_25_65
*662 FILLER_25_97
*678 FILLER_26_1
*682 FILLER_26_129
*683 FILLER_26_161
*684 FILLER_26_193
*685 FILLER_26_225
*686 FILLER_26_257
*687 FILLER_26_289
*688 FILLER_26_321
*679 FILLER_26_33
*689 FILLER_26_353
*690 FILLER_26_385
*691 FILLER_26_417
*692 FILLER_26_449
*693 FILLER_26_481
*694 FILLER_26_513
*695 FILLER_26_521
*696 FILLER_26_523
*680 FILLER_26_65
*681 FILLER_26_97
*697 FILLER_27_1
*701 FILLER_27_129
*702 FILLER_27_161
*703 FILLER_27_193
*704 FILLER_27_225
*705 FILLER_27_257
*706 FILLER_27_289
*707 FILLER_27_321
*698 FILLER_27_33
*708 FILLER_27_353
*709 FILLER_27_385
*710 FILLER_27_417
*711 FILLER_27_449
*712 FILLER_27_481
*713 FILLER_27_513
*714 FILLER_27_521
*715 FILLER_27_523
*699 FILLER_27_65
*700 FILLER_27_97
*716 FILLER_28_1
*720 FILLER_28_129
*721 FILLER_28_161
*722 FILLER_28_193
*723 FILLER_28_225
*724 FILLER_28_257
*725 FILLER_28_289
*726 FILLER_28_321
*717 FILLER_28_33
*727 FILLER_28_353
*728 FILLER_28_385
*729 FILLER_28_417
*730 FILLER_28_449
*731 FILLER_28_481
*732 FILLER_28_513
*733 FILLER_28_521
*734 FILLER_28_523
*718 FILLER_28_65
*719 FILLER_28_97
*735 FILLER_29_1
*739 FILLER_29_129
*740 FILLER_29_161
*741 FILLER_29_193
*742 FILLER_29_225
*743 FILLER_29_257
*744 FILLER_29_289
*745 FILLER_29_321
*736 FILLER_29_33
*746 FILLER_29_353
*747 FILLER_29_385
*748 FILLER_29_417
*749 FILLER_29_449
*750 FILLER_29_481
*751 FILLER_29_513
*752 FILLER_29_521
*753 FILLER_29_523
*737 FILLER_29_65
*738 FILLER_29_97
*222 FILLER_2_1
*226 FILLER_2_129
*227 FILLER_2_161
*228 FILLER_2_193
*229 FILLER_2_225
*230 FILLER_2_257
*231 FILLER_2_289
*232 FILLER_2_321
*223 FILLER_2_33
*233 FILLER_2_353
*234 FILLER_2_385
*235 FILLER_2_417
*236 FILLER_2_449
*237 FILLER_2_481
*238 FILLER_2_513
*239 FILLER_2_521
*240 FILLER_2_523
*224 FILLER_2_65
*225 FILLER_2_97
*754 FILLER_30_1
*758 FILLER_30_129
*759 FILLER_30_161
*760 FILLER_30_193
*761 FILLER_30_225
*762 FILLER_30_257
*763 FILLER_30_289
*764 FILLER_30_321
*755 FILLER_30_33
*765 FILLER_30_353
*766 FILLER_30_385
*767 FILLER_30_417
*768 FILLER_30_449
*769 FILLER_30_481
*770 FILLER_30_513
*771 FILLER_30_521
*772 FILLER_30_523
*756 FILLER_30_65
*757 FILLER_30_97
*773 FILLER_31_1
*777 FILLER_31_129
*778 FILLER_31_161
*779 FILLER_31_193
*780 FILLER_31_225
*781 FILLER_31_257
*782 FILLER_31_289
*783 FILLER_31_321
*774 FILLER_31_33
*784 FILLER_31_353
*785 FILLER_31_385
*786 FILLER_31_417
*787 FILLER_31_449
*788 FILLER_31_481
*789 FILLER_31_513
*790 FILLER_31_521
*791 FILLER_31_523
*775 FILLER_31_65
*776 FILLER_31_97
*792 FILLER_32_1
*796 FILLER_32_129
*797 FILLER_32_161
*798 FILLER_32_193
*799 FILLER_32_225
*800 FILLER_32_257
*801 FILLER_32_289
*802 FILLER_32_321
*793 FILLER_32_33
*803 FILLER_32_353
*804 FILLER_32_385
*805 FILLER_32_417
*806 FILLER_32_449
*807 FILLER_32_481
*808 FILLER_32_513
*809 FILLER_32_521
*810 FILLER_32_523
*794 FILLER_32_65
*795 FILLER_32_97
*811 FILLER_33_1
*815 FILLER_33_129
*816 FILLER_33_161
*817 FILLER_33_193
*818 FILLER_33_225
*819 FILLER_33_257
*820 FILLER_33_289
*821 FILLER_33_321
*812 FILLER_33_33
*822 FILLER_33_353
*823 FILLER_33_385
*824 FILLER_33_417
*825 FILLER_33_449
*826 FILLER_33_481
*827 FILLER_33_513
*828 FILLER_33_521
*829 FILLER_33_523
*813 FILLER_33_65
*814 FILLER_33_97
*830 FILLER_34_1
*834 FILLER_34_129
*835 FILLER_34_161
*836 FILLER_34_193
*837 FILLER_34_225
*838 FILLER_34_257
*839 FILLER_34_289
*840 FILLER_34_321
*831 FILLER_34_33
*841 FILLER_34_353
*842 FILLER_34_385
*843 FILLER_34_417
*844 FILLER_34_449
*845 FILLER_34_481
*846 FILLER_34_513
*847 FILLER_34_521
*848 FILLER_34_523
*832 FILLER_34_65
*833 FILLER_34_97
*849 FILLER_35_1
*853 FILLER_35_129
*854 FILLER_35_161
*855 FILLER_35_193
*856 FILLER_35_225
*857 FILLER_35_257
*858 FILLER_35_289
*859 FILLER_35_321
*850 FILLER_35_33
*860 FILLER_35_353
*861 FILLER_35_385
*862 FILLER_35_417
*863 FILLER_35_449
*864 FILLER_35_481
*865 FILLER_35_513
*866 FILLER_35_521
*867 FILLER_35_523
*851 FILLER_35_65
*852 FILLER_35_97
*868 FILLER_36_1
*872 FILLER_36_129
*873 FILLER_36_161
*874 FILLER_36_193
*875 FILLER_36_225
*876 FILLER_36_257
*877 FILLER_36_289
*878 FILLER_36_321
*869 FILLER_36_33
*879 FILLER_36_353
*880 FILLER_36_385
*881 FILLER_36_417
*882 FILLER_36_449
*883 FILLER_36_481
*884 FILLER_36_513
*885 FILLER_36_521
*886 FILLER_36_523
*870 FILLER_36_65
*871 FILLER_36_97
*887 FILLER_37_1
*891 FILLER_37_129
*892 FILLER_37_161
*893 FILLER_37_193
*894 FILLER_37_225
*895 FILLER_37_257
*896 FILLER_37_289
*897 FILLER_37_321
*888 FILLER_37_33
*898 FILLER_37_353
*899 FILLER_37_385
*900 FILLER_37_417
*901 FILLER_37_449
*902 FILLER_37_481
*903 FILLER_37_513
*904 FILLER_37_521
*905 FILLER_37_523
*889 FILLER_37_65
*890 FILLER_37_97
*906 FILLER_38_1
*910 FILLER_38_129
*911 FILLER_38_161
*912 FILLER_38_193
*913 FILLER_38_225
*914 FILLER_38_257
*915 FILLER_38_289
*916 FILLER_38_321
*907 FILLER_38_33
*917 FILLER_38_353
*918 FILLER_38_385
*919 FILLER_38_417
*920 FILLER_38_449
*921 FILLER_38_481
*922 FILLER_38_513
*923 FILLER_38_521
*924 FILLER_38_523
*908 FILLER_38_65
*909 FILLER_38_97
*925 FILLER_39_1
*929 FILLER_39_129
*930 FILLER_39_161
*931 FILLER_39_193
*932 FILLER_39_225
*933 FILLER_39_257
*934 FILLER_39_289
*935 FILLER_39_321
*926 FILLER_39_33
*936 FILLER_39_353
*937 FILLER_39_385
*938 FILLER_39_417
*939 FILLER_39_449
*940 FILLER_39_481
*941 FILLER_39_513
*942 FILLER_39_521
*943 FILLER_39_523
*927 FILLER_39_65
*928 FILLER_39_97
*241 FILLER_3_1
*245 FILLER_3_129
*246 FILLER_3_161
*247 FILLER_3_193
*248 FILLER_3_225
*249 FILLER_3_257
*250 FILLER_3_289
*251 FILLER_3_321
*242 FILLER_3_33
*252 FILLER_3_353
*253 FILLER_3_385
*254 FILLER_3_417
*255 FILLER_3_449
*256 FILLER_3_481
*257 FILLER_3_513
*258 FILLER_3_521
*259 FILLER_3_523
*243 FILLER_3_65
*244 FILLER_3_97
*944 FILLER_40_1
*948 FILLER_40_129
*949 FILLER_40_161
*950 FILLER_40_193
*951 FILLER_40_225
*952 FILLER_40_257
*953 FILLER_40_289
*954 FILLER_40_321
*945 FILLER_40_33
*955 FILLER_40_353
*956 FILLER_40_385
*957 FILLER_40_417
*958 FILLER_40_449
*959 FILLER_40_481
*960 FILLER_40_513
*961 FILLER_40_521
*962 FILLER_40_523
*946 FILLER_40_65
*947 FILLER_40_97
*963 FILLER_41_1
*967 FILLER_41_129
*968 FILLER_41_161
*969 FILLER_41_193
*970 FILLER_41_225
*971 FILLER_41_257
*972 FILLER_41_289
*973 FILLER_41_321
*964 FILLER_41_33
*974 FILLER_41_353
*975 FILLER_41_385
*976 FILLER_41_417
*977 FILLER_41_449
*978 FILLER_41_481
*979 FILLER_41_513
*980 FILLER_41_521
*981 FILLER_41_523
*965 FILLER_41_65
*966 FILLER_41_97
*982 FILLER_42_1
*986 FILLER_42_129
*987 FILLER_42_161
*988 FILLER_42_193
*989 FILLER_42_225
*990 FILLER_42_257
*991 FILLER_42_289
*992 FILLER_42_321
*983 FILLER_42_33
*993 FILLER_42_353
*994 FILLER_42_385
*995 FILLER_42_417
*996 FILLER_42_449
*997 FILLER_42_481
*998 FILLER_42_513
*999 FILLER_42_521
*1000 FILLER_42_523
*984 FILLER_42_65
*985 FILLER_42_97
*1001 FILLER_43_1
*1005 FILLER_43_129
*1006 FILLER_43_161
*1007 FILLER_43_193
*1008 FILLER_43_225
*1009 FILLER_43_257
*1010 FILLER_43_289
*1011 FILLER_43_321
*1002 FILLER_43_33
*1012 FILLER_43_353
*1013 FILLER_43_385
*1014 FILLER_43_417
*1015 FILLER_43_449
*1016 FILLER_43_481
*1017 FILLER_43_513
*1018 FILLER_43_521
*1019 FILLER_43_523
*1003 FILLER_43_65
*1004 FILLER_43_97
*1020 FILLER_44_1
*1024 FILLER_44_129
*1025 FILLER_44_161
*1026 FILLER_44_193
*1027 FILLER_44_225
*1028 FILLER_44_257
*1029 FILLER_44_289
*1030 FILLER_44_321
*1021 FILLER_44_33
*1031 FILLER_44_353
*1032 FILLER_44_385
*1033 FILLER_44_417
*1034 FILLER_44_449
*1035 FILLER_44_481
*1036 FILLER_44_513
*1037 FILLER_44_521
*1038 FILLER_44_523
*1022 FILLER_44_65
*1023 FILLER_44_97
*1039 FILLER_45_1
*1043 FILLER_45_129
*1044 FILLER_45_161
*1045 FILLER_45_193
*1046 FILLER_45_225
*1047 FILLER_45_257
*1048 FILLER_45_289
*1049 FILLER_45_321
*1040 FILLER_45_33
*1050 FILLER_45_353
*1051 FILLER_45_385
*1052 FILLER_45_417
*1053 FILLER_45_449
*1054 FILLER_45_481
*1055 FILLER_45_513
*1056 FILLER_45_521
*1057 FILLER_45_523
*1041 FILLER_45_65
*1042 FILLER_45_97
*1058 FILLER_46_1
*1062 FILLER_46_129
*1063 FILLER_46_161
*1064 FILLER_46_193
*1065 FILLER_46_225
*1066 FILLER_46_257
*1067 FILLER_46_289
*1068 FILLER_46_321
*1059 FILLER_46_33
*1069 FILLER_46_353
*1070 FILLER_46_385
*1071 FILLER_46_417
*1072 FILLER_46_449
*1073 FILLER_46_481
*1074 FILLER_46_513
*1075 FILLER_46_521
*1076 FILLER_46_523
*1060 FILLER_46_65
*1061 FILLER_46_97
*1077 FILLER_47_1
*1081 FILLER_47_129
*1082 FILLER_47_161
*1083 FILLER_47_193
*1084 FILLER_47_225
*1085 FILLER_47_257
*1086 FILLER_47_289
*1087 FILLER_47_321
*1078 FILLER_47_33
*1088 FILLER_47_353
*1089 FILLER_47_385
*1090 FILLER_47_417
*1091 FILLER_47_449
*1092 FILLER_47_481
*1093 FILLER_47_513
*1094 FILLER_47_521
*1095 FILLER_47_523
*1079 FILLER_47_65
*1080 FILLER_47_97
*1096 FILLER_48_1
*1100 FILLER_48_129
*1101 FILLER_48_161
*1102 FILLER_48_193
*1103 FILLER_48_225
*1104 FILLER_48_257
*1105 FILLER_48_289
*1106 FILLER_48_321
*1097 FILLER_48_33
*1107 FILLER_48_353
*1108 FILLER_48_385
*1109 FILLER_48_417
*1110 FILLER_48_449
*1111 FILLER_48_481
*1112 FILLER_48_513
*1113 FILLER_48_521
*1114 FILLER_48_523
*1098 FILLER_48_65
*1099 FILLER_48_97
*1115 FILLER_49_1
*1119 FILLER_49_129
*1120 FILLER_49_161
*1121 FILLER_49_193
*1122 FILLER_49_225
*1123 FILLER_49_257
*1124 FILLER_49_289
*1125 FILLER_49_321
*1116 FILLER_49_33
*1126 FILLER_49_353
*1127 FILLER_49_385
*1128 FILLER_49_417
*1129 FILLER_49_449
*1130 FILLER_49_481
*1131 FILLER_49_513
*1132 FILLER_49_521
*1133 FILLER_49_523
*1117 FILLER_49_65
*1118 FILLER_49_97
*260 FILLER_4_1
*264 FILLER_4_129
*265 FILLER_4_161
*266 FILLER_4_193
*267 FILLER_4_225
*268 FILLER_4_257
*269 FILLER_4_289
*270 FILLER_4_321
*261 FILLER_4_33
*271 FILLER_4_353
*272 FILLER_4_385
*273 FILLER_4_417
*274 FILLER_4_449
*275 FILLER_4_481
*276 FILLER_4_513
*277 FILLER_4_521
*278 FILLER_4_523
*262 FILLER_4_65
*263 FILLER_4_97
*1134 FILLER_50_1
*1138 FILLER_50_129
*1139 FILLER_50_161
*1140 FILLER_50_193
*1141 FILLER_50_225
*1142 FILLER_50_257
*1143 FILLER_50_289
*1144 FILLER_50_321
*1135 FILLER_50_33
*1145 FILLER_50_353
*1146 FILLER_50_385
*1147 FILLER_50_417
*1148 FILLER_50_449
*1149 FILLER_50_481
*1150 FILLER_50_513
*1151 FILLER_50_521
*1152 FILLER_50_523
*1136 FILLER_50_65
*1137 FILLER_50_97
*1153 FILLER_51_1
*1157 FILLER_51_129
*1158 FILLER_51_161
*1159 FILLER_51_193
*1160 FILLER_51_225
*1161 FILLER_51_257
*1162 FILLER_51_289
*1163 FILLER_51_321
*1154 FILLER_51_33
*1164 FILLER_51_353
*1165 FILLER_51_385
*1166 FILLER_51_417
*1167 FILLER_51_449
*1168 FILLER_51_481
*1169 FILLER_51_513
*1170 FILLER_51_521
*1171 FILLER_51_523
*1155 FILLER_51_65
*1156 FILLER_51_97
*1172 FILLER_52_1
*1176 FILLER_52_129
*1177 FILLER_52_161
*1178 FILLER_52_193
*1179 FILLER_52_225
*1180 FILLER_52_257
*1181 FILLER_52_289
*1182 FILLER_52_321
*1173 FILLER_52_33
*1183 FILLER_52_353
*1184 FILLER_52_385
*1185 FILLER_52_417
*1186 FILLER_52_449
*1187 FILLER_52_481
*1188 FILLER_52_513
*1189 FILLER_52_521
*1190 FILLER_52_523
*1174 FILLER_52_65
*1175 FILLER_52_97
*1191 FILLER_53_1
*1195 FILLER_53_129
*1196 FILLER_53_161
*1197 FILLER_53_193
*1198 FILLER_53_225
*1199 FILLER_53_257
*1200 FILLER_53_289
*1201 FILLER_53_321
*1192 FILLER_53_33
*1202 FILLER_53_353
*1203 FILLER_53_385
*1204 FILLER_53_417
*1205 FILLER_53_449
*1206 FILLER_53_481
*1207 FILLER_53_513
*1208 FILLER_53_521
*1209 FILLER_53_523
*1193 FILLER_53_65
*1194 FILLER_53_97
*1210 FILLER_54_1
*1214 FILLER_54_129
*1215 FILLER_54_161
*1216 FILLER_54_193
*1217 FILLER_54_225
*1218 FILLER_54_257
*1219 FILLER_54_289
*1220 FILLER_54_321
*1211 FILLER_54_33
*1221 FILLER_54_353
*1222 FILLER_54_385
*1223 FILLER_54_417
*1224 FILLER_54_449
*1225 FILLER_54_481
*1226 FILLER_54_513
*1227 FILLER_54_521
*1228 FILLER_54_523
*1212 FILLER_54_65
*1213 FILLER_54_97
*1229 FILLER_55_1
*1233 FILLER_55_129
*1234 FILLER_55_161
*1235 FILLER_55_193
*1236 FILLER_55_225
*1237 FILLER_55_257
*1238 FILLER_55_289
*1239 FILLER_55_321
*1230 FILLER_55_33
*1240 FILLER_55_353
*1241 FILLER_55_385
*1242 FILLER_55_417
*1243 FILLER_55_449
*1244 FILLER_55_481
*1245 FILLER_55_513
*1246 FILLER_55_521
*1247 FILLER_55_523
*1231 FILLER_55_65
*1232 FILLER_55_97
*1248 FILLER_56_1
*1252 FILLER_56_129
*1253 FILLER_56_161
*1254 FILLER_56_193
*1255 FILLER_56_225
*1256 FILLER_56_257
*1257 FILLER_56_289
*1258 FILLER_56_321
*1249 FILLER_56_33
*1259 FILLER_56_353
*1260 FILLER_56_385
*1261 FILLER_56_417
*1262 FILLER_56_449
*1263 FILLER_56_481
*1264 FILLER_56_513
*1265 FILLER_56_521
*1266 FILLER_56_523
*1250 FILLER_56_65
*1251 FILLER_56_97
*1267 FILLER_57_1
*1271 FILLER_57_129
*1272 FILLER_57_161
*1273 FILLER_57_193
*1274 FILLER_57_225
*1275 FILLER_57_257
*1276 FILLER_57_289
*1277 FILLER_57_321
*1268 FILLER_57_33
*1278 FILLER_57_353
*1279 FILLER_57_385
*1280 FILLER_57_417
*1281 FILLER_57_449
*1282 FILLER_57_481
*1283 FILLER_57_513
*1284 FILLER_57_521
*1285 FILLER_57_523
*1269 FILLER_57_65
*1270 FILLER_57_97
*1286 FILLER_58_1
*1290 FILLER_58_129
*1291 FILLER_58_161
*1292 FILLER_58_193
*1293 FILLER_58_225
*1294 FILLER_58_257
*1295 FILLER_58_289
*1296 FILLER_58_321
*1287 FILLER_58_33
*1297 FILLER_58_353
*1298 FILLER_58_385
*1299 FILLER_58_417
*1300 FILLER_58_449
*1301 FILLER_58_481
*1302 FILLER_58_513
*1303 FILLER_58_521
*1304 FILLER_58_523
*1288 FILLER_58_65
*1289 FILLER_58_97
*1305 FILLER_59_1
*1309 FILLER_59_129
*1310 FILLER_59_161
*1311 FILLER_59_193
*1312 FILLER_59_225
*1313 FILLER_59_257
*1314 FILLER_59_289
*1315 FILLER_59_321
*1306 FILLER_59_33
*1316 FILLER_59_353
*1317 FILLER_59_385
*1318 FILLER_59_417
*1319 FILLER_59_449
*1320 FILLER_59_481
*1321 FILLER_59_513
*1322 FILLER_59_521
*1323 FILLER_59_523
*1307 FILLER_59_65
*1308 FILLER_59_97
*279 FILLER_5_1
*283 FILLER_5_129
*284 FILLER_5_161
*285 FILLER_5_193
*286 FILLER_5_225
*287 FILLER_5_257
*288 FILLER_5_289
*289 FILLER_5_321
*280 FILLER_5_33
*290 FILLER_5_353
*291 FILLER_5_385
*292 FILLER_5_417
*293 FILLER_5_449
*294 FILLER_5_481
*295 FILLER_5_513
*296 FILLER_5_521
*297 FILLER_5_523
*281 FILLER_5_65
*282 FILLER_5_97
*1324 FILLER_60_1
*1328 FILLER_60_129
*1329 FILLER_60_161
*1330 FILLER_60_193
*1331 FILLER_60_225
*1332 FILLER_60_257
*1333 FILLER_60_289
*1334 FILLER_60_321
*1325 FILLER_60_33
*1335 FILLER_60_353
*1336 FILLER_60_385
*1337 FILLER_60_417
*1338 FILLER_60_449
*1339 FILLER_60_481
*1340 FILLER_60_513
*1341 FILLER_60_521
*1342 FILLER_60_523
*1326 FILLER_60_65
*1327 FILLER_60_97
*1343 FILLER_61_1
*1347 FILLER_61_129
*1348 FILLER_61_161
*1349 FILLER_61_193
*1350 FILLER_61_225
*1351 FILLER_61_257
*1352 FILLER_61_289
*1353 FILLER_61_321
*1344 FILLER_61_33
*1354 FILLER_61_353
*1355 FILLER_61_385
*1356 FILLER_61_417
*1357 FILLER_61_449
*1358 FILLER_61_481
*1359 FILLER_61_513
*1360 FILLER_61_521
*1361 FILLER_61_523
*1345 FILLER_61_65
*1346 FILLER_61_97
*1362 FILLER_62_1
*1366 FILLER_62_129
*1367 FILLER_62_161
*1368 FILLER_62_193
*1369 FILLER_62_225
*1370 FILLER_62_257
*1371 FILLER_62_289
*1372 FILLER_62_321
*1363 FILLER_62_33
*1373 FILLER_62_353
*1374 FILLER_62_385
*1375 FILLER_62_417
*1376 FILLER_62_449
*1377 FILLER_62_481
*1378 FILLER_62_513
*1379 FILLER_62_521
*1380 FILLER_62_523
*1364 FILLER_62_65
*1365 FILLER_62_97
*1381 FILLER_63_1
*1385 FILLER_63_129
*1386 FILLER_63_161
*1387 FILLER_63_193
*1388 FILLER_63_225
*1389 FILLER_63_257
*1390 FILLER_63_289
*1391 FILLER_63_321
*1382 FILLER_63_33
*1392 FILLER_63_353
*1393 FILLER_63_385
*1394 FILLER_63_417
*1395 FILLER_63_449
*1396 FILLER_63_481
*1397 FILLER_63_513
*1398 FILLER_63_521
*1399 FILLER_63_523
*1383 FILLER_63_65
*1384 FILLER_63_97
*1400 FILLER_64_1
*1404 FILLER_64_129
*1405 FILLER_64_161
*1406 FILLER_64_193
*1407 FILLER_64_225
*1408 FILLER_64_233
*1409 FILLER_64_237
*1410 FILLER_64_258
*1411 FILLER_64_282
*1412 FILLER_64_314
*1401 FILLER_64_33
*1413 FILLER_64_346
*1414 FILLER_64_378
*1415 FILLER_64_410
*1416 FILLER_64_442
*1417 FILLER_64_474
*1418 FILLER_64_506
*1419 FILLER_64_522
*1402 FILLER_64_65
*1403 FILLER_64_97
*1420 FILLER_65_1
*1424 FILLER_65_129
*1425 FILLER_65_161
*1426 FILLER_65_193
*1427 FILLER_65_209
*1428 FILLER_65_222
*1429 FILLER_65_238
*1430 FILLER_65_282
*1431 FILLER_65_286
*1432 FILLER_65_293
*1433 FILLER_65_325
*1421 FILLER_65_33
*1434 FILLER_65_357
*1435 FILLER_65_389
*1436 FILLER_65_421
*1437 FILLER_65_453
*1438 FILLER_65_485
*1439 FILLER_65_517
*1440 FILLER_65_521
*1441 FILLER_65_523
*1422 FILLER_65_65
*1423 FILLER_65_97
*1442 FILLER_66_1
*1446 FILLER_66_129
*1447 FILLER_66_161
*1448 FILLER_66_193
*1449 FILLER_66_209
*1450 FILLER_66_220
*1451 FILLER_66_236
*1452 FILLER_66_246
*1453 FILLER_66_250
*1454 FILLER_66_256
*1455 FILLER_66_260
*1456 FILLER_66_262
*1457 FILLER_66_265
*1458 FILLER_66_276
*1459 FILLER_66_308
*1443 FILLER_66_33
*1460 FILLER_66_340
*1461 FILLER_66_372
*1462 FILLER_66_404
*1463 FILLER_66_436
*1464 FILLER_66_468
*1465 FILLER_66_500
*1466 FILLER_66_516
*1444 FILLER_66_65
*1445 FILLER_66_97
*1467 FILLER_67_1
*1471 FILLER_67_129
*1472 FILLER_67_161
*1473 FILLER_67_193
*1474 FILLER_67_225
*1475 FILLER_67_260
*1476 FILLER_67_268
*1477 FILLER_67_300
*1468 FILLER_67_33
*1478 FILLER_67_332
*1479 FILLER_67_364
*1480 FILLER_67_396
*1481 FILLER_67_428
*1482 FILLER_67_460
*1483 FILLER_67_492
*1469 FILLER_67_65
*1470 FILLER_67_97
*1484 FILLER_68_1
*1488 FILLER_68_129
*1489 FILLER_68_161
*1490 FILLER_68_193
*1491 FILLER_68_225
*1492 FILLER_68_257
*1493 FILLER_68_261
*1494 FILLER_68_263
*1495 FILLER_68_267
*1496 FILLER_68_272
*1497 FILLER_68_304
*1485 FILLER_68_33
*1498 FILLER_68_336
*1499 FILLER_68_368
*1500 FILLER_68_400
*1501 FILLER_68_432
*1502 FILLER_68_464
*1503 FILLER_68_496
*1504 FILLER_68_512
*1505 FILLER_68_520
*1486 FILLER_68_65
*1487 FILLER_68_97
*1506 FILLER_69_1
*1510 FILLER_69_129
*1511 FILLER_69_161
*1512 FILLER_69_193
*1513 FILLER_69_225
*1514 FILLER_69_257
*1515 FILLER_69_261
*1516 FILLER_69_265
*1517 FILLER_69_297
*1518 FILLER_69_329
*1507 FILLER_69_33
*1519 FILLER_69_361
*1520 FILLER_69_393
*1521 FILLER_69_425
*1522 FILLER_69_457
*1523 FILLER_69_489
*1524 FILLER_69_521
*1525 FILLER_69_523
*1508 FILLER_69_65
*1509 FILLER_69_97
*298 FILLER_6_1
*302 FILLER_6_129
*303 FILLER_6_161
*304 FILLER_6_193
*305 FILLER_6_225
*306 FILLER_6_257
*307 FILLER_6_289
*308 FILLER_6_321
*299 FILLER_6_33
*309 FILLER_6_353
*310 FILLER_6_385
*311 FILLER_6_417
*312 FILLER_6_449
*313 FILLER_6_481
*314 FILLER_6_513
*315 FILLER_6_521
*316 FILLER_6_523
*300 FILLER_6_65
*301 FILLER_6_97
*317 FILLER_7_1
*321 FILLER_7_129
*322 FILLER_7_161
*323 FILLER_7_193
*324 FILLER_7_225
*325 FILLER_7_257
*326 FILLER_7_289
*327 FILLER_7_321
*318 FILLER_7_33
*328 FILLER_7_353
*329 FILLER_7_385
*330 FILLER_7_417
*331 FILLER_7_449
*332 FILLER_7_481
*333 FILLER_7_513
*334 FILLER_7_521
*335 FILLER_7_523
*319 FILLER_7_65
*320 FILLER_7_97
*336 FILLER_8_1
*340 FILLER_8_129
*341 FILLER_8_161
*342 FILLER_8_193
*343 FILLER_8_225
*344 FILLER_8_257
*345 FILLER_8_289
*346 FILLER_8_321
*337 FILLER_8_33
*347 FILLER_8_353
*348 FILLER_8_385
*349 FILLER_8_417
*350 FILLER_8_449
*351 FILLER_8_481
*352 FILLER_8_513
*353 FILLER_8_521
*354 FILLER_8_523
*338 FILLER_8_65
*339 FILLER_8_97
*355 FILLER_9_1
*359 FILLER_9_129
*360 FILLER_9_161
*361 FILLER_9_193
*362 FILLER_9_225
*363 FILLER_9_257
*364 FILLER_9_289
*365 FILLER_9_321
*356 FILLER_9_33
*366 FILLER_9_353
*367 FILLER_9_385
*368 FILLER_9_417
*369 FILLER_9_449
*370 FILLER_9_481
*371 FILLER_9_513
*372 FILLER_9_521
*373 FILLER_9_523
*357 FILLER_9_65
*358 FILLER_9_97
*102 PHY_EDGE_ROW_0_Left_70
*32 PHY_EDGE_ROW_0_Right_0
*112 PHY_EDGE_ROW_10_Left_80
*42 PHY_EDGE_ROW_10_Right_10
*113 PHY_EDGE_ROW_11_Left_81
*43 PHY_EDGE_ROW_11_Right_11
*114 PHY_EDGE_ROW_12_Left_82
*44 PHY_EDGE_ROW_12_Right_12
*115 PHY_EDGE_ROW_13_Left_83
*45 PHY_EDGE_ROW_13_Right_13
*116 PHY_EDGE_ROW_14_Left_84
*46 PHY_EDGE_ROW_14_Right_14
*117 PHY_EDGE_ROW_15_Left_85
*47 PHY_EDGE_ROW_15_Right_15
*118 PHY_EDGE_ROW_16_Left_86
*48 PHY_EDGE_ROW_16_Right_16
*119 PHY_EDGE_ROW_17_Left_87
*49 PHY_EDGE_ROW_17_Right_17
*120 PHY_EDGE_ROW_18_Left_88
*50 PHY_EDGE_ROW_18_Right_18
*121 PHY_EDGE_ROW_19_Left_89
*51 PHY_EDGE_ROW_19_Right_19
*103 PHY_EDGE_ROW_1_Left_71
*33 PHY_EDGE_ROW_1_Right_1
*122 PHY_EDGE_ROW_20_Left_90
*52 PHY_EDGE_ROW_20_Right_20
*123 PHY_EDGE_ROW_21_Left_91
*53 PHY_EDGE_ROW_21_Right_21
*124 PHY_EDGE_ROW_22_Left_92
*54 PHY_EDGE_ROW_22_Right_22
*125 PHY_EDGE_ROW_23_Left_93
*55 PHY_EDGE_ROW_23_Right_23
*126 PHY_EDGE_ROW_24_Left_94
*56 PHY_EDGE_ROW_24_Right_24
*127 PHY_EDGE_ROW_25_Left_95
*57 PHY_EDGE_ROW_25_Right_25
*128 PHY_EDGE_ROW_26_Left_96
*58 PHY_EDGE_ROW_26_Right_26
*129 PHY_EDGE_ROW_27_Left_97
*59 PHY_EDGE_ROW_27_Right_27
*130 PHY_EDGE_ROW_28_Left_98
*60 PHY_EDGE_ROW_28_Right_28
*131 PHY_EDGE_ROW_29_Left_99
*61 PHY_EDGE_ROW_29_Right_29
*104 PHY_EDGE_ROW_2_Left_72
*34 PHY_EDGE_ROW_2_Right_2
*132 PHY_EDGE_ROW_30_Left_100
*62 PHY_EDGE_ROW_30_Right_30
*133 PHY_EDGE_ROW_31_Left_101
*63 PHY_EDGE_ROW_31_Right_31
*134 PHY_EDGE_ROW_32_Left_102
*64 PHY_EDGE_ROW_32_Right_32
*135 PHY_EDGE_ROW_33_Left_103
*65 PHY_EDGE_ROW_33_Right_33
*136 PHY_EDGE_ROW_34_Left_104
*66 PHY_EDGE_ROW_34_Right_34
*137 PHY_EDGE_ROW_35_Left_105
*67 PHY_EDGE_ROW_35_Right_35
*138 PHY_EDGE_ROW_36_Left_106
*68 PHY_EDGE_ROW_36_Right_36
*139 PHY_EDGE_ROW_37_Left_107
*69 PHY_EDGE_ROW_37_Right_37
*140 PHY_EDGE_ROW_38_Left_108
*70 PHY_EDGE_ROW_38_Right_38
*141 PHY_EDGE_ROW_39_Left_109
*71 PHY_EDGE_ROW_39_Right_39
*105 PHY_EDGE_ROW_3_Left_73
*35 PHY_EDGE_ROW_3_Right_3
*142 PHY_EDGE_ROW_40_Left_110
*72 PHY_EDGE_ROW_40_Right_40
*143 PHY_EDGE_ROW_41_Left_111
*73 PHY_EDGE_ROW_41_Right_41
*144 PHY_EDGE_ROW_42_Left_112
*74 PHY_EDGE_ROW_42_Right_42
*145 PHY_EDGE_ROW_43_Left_113
*75 PHY_EDGE_ROW_43_Right_43
*146 PHY_EDGE_ROW_44_Left_114
*76 PHY_EDGE_ROW_44_Right_44
*147 PHY_EDGE_ROW_45_Left_115
*77 PHY_EDGE_ROW_45_Right_45
*148 PHY_EDGE_ROW_46_Left_116
*78 PHY_EDGE_ROW_46_Right_46
*149 PHY_EDGE_ROW_47_Left_117
*79 PHY_EDGE_ROW_47_Right_47
*150 PHY_EDGE_ROW_48_Left_118
*80 PHY_EDGE_ROW_48_Right_48
*151 PHY_EDGE_ROW_49_Left_119
*81 PHY_EDGE_ROW_49_Right_49
*106 PHY_EDGE_ROW_4_Left_74
*36 PHY_EDGE_ROW_4_Right_4
*152 PHY_EDGE_ROW_50_Left_120
*82 PHY_EDGE_ROW_50_Right_50
*153 PHY_EDGE_ROW_51_Left_121
*83 PHY_EDGE_ROW_51_Right_51
*154 PHY_EDGE_ROW_52_Left_122
*84 PHY_EDGE_ROW_52_Right_52
*155 PHY_EDGE_ROW_53_Left_123
*85 PHY_EDGE_ROW_53_Right_53
*156 PHY_EDGE_ROW_54_Left_124
*86 PHY_EDGE_ROW_54_Right_54
*157 PHY_EDGE_ROW_55_Left_125
*87 PHY_EDGE_ROW_55_Right_55
*158 PHY_EDGE_ROW_56_Left_126
*88 PHY_EDGE_ROW_56_Right_56
*159 PHY_EDGE_ROW_57_Left_127
*89 PHY_EDGE_ROW_57_Right_57
*160 PHY_EDGE_ROW_58_Left_128
*90 PHY_EDGE_ROW_58_Right_58
*161 PHY_EDGE_ROW_59_Left_129
*91 PHY_EDGE_ROW_59_Right_59
*107 PHY_EDGE_ROW_5_Left_75
*37 PHY_EDGE_ROW_5_Right_5
*162 PHY_EDGE_ROW_60_Left_130
*92 PHY_EDGE_ROW_60_Right_60
*163 PHY_EDGE_ROW_61_Left_131
*93 PHY_EDGE_ROW_61_Right_61
*164 PHY_EDGE_ROW_62_Left_132
*94 PHY_EDGE_ROW_62_Right_62
*165 PHY_EDGE_ROW_63_Left_133
*95 PHY_EDGE_ROW_63_Right_63
*166 PHY_EDGE_ROW_64_Left_134
*96 PHY_EDGE_ROW_64_Right_64
*167 PHY_EDGE_ROW_65_Left_135
*97 PHY_EDGE_ROW_65_Right_65
*168 PHY_EDGE_ROW_66_Left_136
*98 PHY_EDGE_ROW_66_Right_66
*169 PHY_EDGE_ROW_67_Left_137
*99 PHY_EDGE_ROW_67_Right_67
*170 PHY_EDGE_ROW_68_Left_138
*100 PHY_EDGE_ROW_68_Right_68
*171 PHY_EDGE_ROW_69_Left_139
*101 PHY_EDGE_ROW_69_Right_69
*108 PHY_EDGE_ROW_6_Left_76
*38 PHY_EDGE_ROW_6_Right_6
*109 PHY_EDGE_ROW_7_Left_77
*39 PHY_EDGE_ROW_7_Right_7
*110 PHY_EDGE_ROW_8_Left_78
*40 PHY_EDGE_ROW_8_Right_8
*111 PHY_EDGE_ROW_9_Left_79
*41 PHY_EDGE_ROW_9_Right_9
*26 _6_
*27 _7_
*177 clkbuf_0_clk
*178 clkbuf_1_0__f_clk
*179 clkbuf_1_1__f_clk
*180 clkload0
*181 hold6
*182 hold7
*183 hold8
*172 input1
*173 output2
*174 output3
*175 output4
*176 output5
*28 q\[0\]\$_DFF_PP1_
*29 q\[1\]\$_DFF_PP0_
*30 q\[2\]\$_DFF_PP0_
*31 q\[3\]\$_DFF_PP0_

*PORTS
clk I
q[0] O
q[1] O
q[2] O
q[3] O
reset I

*D_NET *1 8.84469e-05
*CONN
*I *28:D I *D DFFS_X1
*I *27:Z O *D XOR2_X1
*CAP
1 *28:D 3.54197e-05
2 *27:Z 3.54197e-05
3 *28:D *27:B 1.26075e-05
4 *28:D *31:D 5.00003e-06
5 *28:D *20:6 0
6 *28:D *20:15 0
*RES
1 *27:Z *28:D 13.75 
*END

*D_NET *2 0.000244182
*CONN
*I *183:A I *D CLKBUF_X1
*I *28:SN I *D DFFS_X1
*I *26:ZN O *D INV_X1
*CAP
1 *183:A 0
2 *28:SN 5.35917e-05
3 *26:ZN 3.57012e-05
4 *2:10 8.92928e-05
5 *28:SN *28:CK 0
6 *28:SN *176:A 0
7 *28:SN *11:8 2.16417e-05
8 *28:SN *20:6 4.43885e-06
9 *28:SN *20:15 3.03896e-06
10 *2:10 q[3] 0
11 *2:10 *27:A 6.32202e-06
12 *2:10 *10:20 9.36991e-06
13 *2:10 *20:47 2.07846e-05
*RES
1 *26:ZN *2:10 20 
2 *2:10 *28:SN 11.1786 
3 *2:10 *183:A 5 
*END

*D_NET *7 0.00766247
*CONN
*P clk I
*I *177:A I *D CLKBUF_X3
*CAP
1 clk 0.00202762
2 *177:A 0
3 *7:14 8.33684e-06
4 *7:10 0.00179677
5 *7:8 0.00178843
6 *7:6 0.00202762
7 *7:14 *27:A 9.43659e-06
8 *7:14 *10:20 4.25442e-06
*RES
1 clk *7:6 87.045 
2 *7:6 *7:8 3 
3 *7:8 *7:10 66.57 
4 *7:10 *7:14 5.96429 
5 *7:14 *177:A 10 
*END

*D_NET *20 0.00114929
*CONN
*I *179:A I *D CLKBUF_X3
*I *178:A I *D CLKBUF_X3
*I *177:Z O *D CLKBUF_X3
*CAP
1 *179:A 2.86333e-05
2 *178:A 0
3 *177:Z 0
4 *20:47 0.000248363
5 *20:26 0.000219729
6 *20:15 0.000195346
7 *20:6 0.000222786
8 *20:4 2.74403e-05
9 *20:15 *28:CK 3.50761e-05
10 *20:15 *31:RN 0
11 *20:15 *21:22 5.47767e-05
12 *27:A *20:47 1.00435e-05
13 *27:B *20:6 0
14 *28:D *20:6 0
15 *28:D *20:15 0
16 *28:SN *20:6 4.43885e-06
17 *28:SN *20:15 3.03896e-06
18 *31:D *20:15 8.68897e-06
19 *2:10 *20:47 2.07846e-05
20 *10:14 *179:A 0
21 *10:14 *20:47 1.59943e-05
22 *10:20 *20:15 1.58681e-05
23 *10:20 *20:47 3.82835e-05
*RES
1 *177:Z *20:4 5 
2 *20:4 *20:6 2.67857 
3 *20:6 *20:15 31 
4 *20:15 *178:A 10 
5 *20:4 *20:26 5 
6 *20:26 *20:47 40.33 
7 *20:47 *179:A 7.75 
*END

*D_NET *21 0.000633569
*CONN
*I *28:CK I *D DFFS_X1
*I *31:CK I *D DFFR_X1
*I *180:A I *D CLKBUF_X1
*I *178:Z O *D CLKBUF_X3
*CAP
1 *28:CK 7.42645e-05
2 *31:CK 4.14218e-05
3 *180:A 5.34953e-05
4 *178:Z 0.000143434
5 *21:22 0.000205625
6 *28:CK *31:RN 7.14654e-06
7 *28:SN *28:CK 0
8 *31:D *28:CK 0
9 *31:D *31:CK 1.83288e-05
10 *11:8 *28:CK 0
11 *20:15 *28:CK 3.50761e-05
12 *20:15 *21:22 5.47767e-05
*RES
1 *178:Z *180:A 15.3571 
2 *178:Z *21:22 22.4643 
3 *21:22 *31:CK 14.75 
4 *21:22 *28:CK 19.6429 
*END

*D_NET *22 0.000637755
*CONN
*I *29:CK I *D DFFR_X1
*I *30:CK I *D DFFR_X1
*I *179:Z O *D CLKBUF_X3
*CAP
1 *29:CK 1.73616e-05
2 *30:CK 4.31799e-05
3 *179:Z 0.000133586
4 *22:10 0.000194127
5 *29:CK *25:6 5.10662e-06
6 *30:CK *25:6 2.24327e-06
7 *30:CK *25:16 2.55787e-06
8 *22:10 *25:16 0
9 *30:D *30:CK 1.57087e-05
10 *30:D *22:10 5.56848e-05
11 *173:A *29:CK 3.09411e-06
12 *174:A *29:CK 0
13 *174:A *30:CK 0
14 *8:10 *22:10 6.50033e-06
15 *9:8 *22:10 0.000158605
*RES
1 *179:Z *22:10 33.5714 
2 *22:10 *30:CK 9.75 
3 *22:10 *29:CK 7.25 
*END

*D_NET *12 8.44777e-05
*CONN
*I *182:A I *D CLKBUF_X1
*I *172:Z O *D BUF_X1
*CAP
1 *182:A 2.15854e-05
2 *172:Z 2.15854e-05
3 *182:A *26:A 3.41146e-05
4 *182:A *16:18 7.19234e-06
*RES
1 *172:Z *182:A 13.25 
*END

*D_NET *8 0.000283173
*CONN
*I *173:A I *D BUF_X1
*I *29:D I *D DFFR_X1
*I *28:Q O *D DFFS_X1
*CAP
1 *173:A 8.75841e-05
2 *29:D 0
3 *28:Q 2.29891e-05
4 *8:10 0.000110573
5 *173:A *26:A 2.48915e-05
6 *173:A *29:CK 3.09411e-06
7 *173:A *174:A 1.88535e-05
8 *173:A *11:8 0
9 *173:A *25:6 0
10 *8:10 *10:20 8.68712e-06
11 *8:10 *22:10 6.50033e-06
12 *8:10 *25:16 0
*RES
1 *28:Q *8:10 17.9643 
2 *8:10 *29:D 5 
3 *8:10 *173:A 15.25 
*END

*D_NET *9 0.00078794
*CONN
*I *174:A I *D BUF_X1
*I *30:D I *D DFFR_X1
*I *29:Q O *D DFFR_X1
*CAP
1 *174:A 0.000155265
2 *30:D 5.08234e-05
3 *29:Q 5.1387e-05
4 *9:8 0.000257475
5 *30:D *29:RN 0
6 *30:D *30:CK 1.57087e-05
7 *30:D *22:10 5.56848e-05
8 *30:D *25:16 3.13574e-06
9 *174:A *26:A 0
10 *174:A *29:RN 8.43215e-07
11 *174:A *29:CK 0
12 *174:A *30:CK 0
13 *174:A *10:20 4.79202e-06
14 *174:A *16:18 1.40196e-05
15 *174:A *18:6 0
16 *9:8 *22:10 0.000158605
17 *9:8 *25:16 1.34851e-06
18 *173:A *174:A 1.88535e-05
*RES
1 *29:Q *9:8 18.3929 
2 *9:8 *30:D 16.7143 
3 *9:8 *174:A 26.75 
*END

*D_NET *10 0.00102409
*CONN
*I *175:A I *D BUF_X1
*I *27:B I *D XOR2_X1
*I *31:D I *D DFFR_X1
*I *30:Q O *D DFFR_X1
*CAP
1 *175:A 0
2 *27:B 2.89424e-05
3 *31:D 0.00010379
4 *30:Q 0.000133459
5 *10:20 0.000304823
6 *10:14 0.000305549
7 *27:B *20:6 0
8 *31:D *27:A 1.39037e-06
9 *31:D *28:CK 0
10 *31:D *31:CK 1.83288e-05
11 *31:D *20:15 8.68897e-06
12 *10:14 *29:RN 0
13 *10:14 *179:A 0
14 *10:14 *20:47 1.59943e-05
15 *10:14 *25:16 0
16 *10:20 *27:A 4.2581e-06
17 *10:20 *20:15 1.58681e-05
18 *10:20 *20:47 3.82835e-05
19 *28:D *27:B 1.26075e-05
20 *28:D *31:D 5.00003e-06
21 *174:A *10:20 4.79202e-06
22 *2:10 *10:20 9.36991e-06
23 *7:14 *10:20 4.25442e-06
24 *8:10 *10:20 8.68712e-06
*RES
1 *30:Q *10:14 29.1786 
2 *10:14 *10:20 26.5 
3 *10:20 *31:D 21.2143 
4 *10:20 *27:B 13.1786 
5 *10:14 *175:A 5 
*END

*D_NET *11 0.000598284
*CONN
*I *176:A I *D BUF_X1
*I *27:A I *D XOR2_X1
*I *31:Q O *D DFFR_X1
*CAP
1 *176:A 5.72553e-05
2 *27:A 9.86381e-05
3 *31:Q 8.15114e-05
4 *11:8 0.000237405
5 *27:A *20:47 1.00435e-05
6 *176:A *26:A 0
7 *176:A *172:A 6.38328e-07
8 *11:8 *26:A 0
9 *11:8 *28:CK 0
10 *11:8 *25:6 6.73468e-05
11 *11:8 *25:16 2.39679e-06
12 *28:SN *176:A 0
13 *28:SN *11:8 2.16417e-05
14 *31:D *27:A 1.39037e-06
15 *173:A *11:8 0
16 *2:10 *27:A 6.32202e-06
17 *7:14 *27:A 9.43659e-06
18 *10:20 *27:A 4.2581e-06
*RES
1 *31:Q *11:8 15.1786 
2 *11:8 *27:A 26.1786 
3 *11:8 *176:A 10.6786 
*END

*D_NET *23 0.000228633
*CONN
*I *172:A I *D BUF_X1
*I *181:Z O *D CLKBUF_X1
*CAP
1 *172:A 8.19871e-05
2 *181:Z 8.19871e-05
3 *172:A *26:A 6.40201e-05
4 *176:A *172:A 6.38328e-07
5 *16:18 *172:A 0
*RES
1 *181:Z *172:A 19.8571 
*END

*D_NET *24 0.000327058
*CONN
*I *26:A I *D INV_X1
*I *182:Z O *D CLKBUF_X1
*CAP
1 *26:A 0.000100739
2 *182:Z 0.000100739
3 *172:A *26:A 6.40201e-05
4 *173:A *26:A 2.48915e-05
5 *174:A *26:A 0
6 *176:A *26:A 0
7 *182:A *26:A 3.41146e-05
8 *11:8 *26:A 0
9 *16:18 *26:A 2.55331e-06
*RES
1 *182:Z *26:A 23.5357 
*END

*D_NET *25 0.000594546
*CONN
*I *31:RN I *D DFFR_X1
*I *29:RN I *D DFFR_X1
*I *30:RN I *D DFFR_X1
*I *183:Z O *D CLKBUF_X1
*CAP
1 *31:RN 6.67653e-05
2 *29:RN 1.91863e-05
3 *30:RN 0
4 *183:Z 4.99063e-05
5 *25:16 0.000134539
6 *25:6 0.000232024
7 *28:CK *31:RN 7.14654e-06
8 *29:CK *25:6 5.10662e-06
9 *30:D *29:RN 0
10 *30:D *25:16 3.13574e-06
11 *30:CK *25:6 2.24327e-06
12 *30:CK *25:16 2.55787e-06
13 *173:A *25:6 0
14 *174:A *29:RN 8.43215e-07
15 *8:10 *25:16 0
16 *9:8 *25:16 1.34851e-06
17 *10:14 *29:RN 0
18 *10:14 *25:16 0
19 *11:8 *25:6 6.73468e-05
20 *11:8 *25:16 2.39679e-06
21 *20:15 *31:RN 0
22 *22:10 *25:16 0
*RES
1 *183:Z *25:6 11.75 
2 *25:6 *25:16 21.8929 
3 *25:16 *30:RN 5 
4 *25:16 *29:RN 6.75 
5 *25:6 *31:RN 22.0357 
*END

*D_NET *16 0.00113203
*CONN
*P q[0] O
*I *173:Z O *D BUF_X1
*CAP
1 q[0] 7.25865e-05
2 *173:Z 0.000333678
3 *16:18 0.000406264
4 q[0] q[1] 1.04569e-05
5 q[0] q[3] 1.04569e-05
6 *16:18 q[3] 0.000131284
7 *16:18 *26:A 2.55331e-06
8 *16:18 *172:A 0
9 *16:18 *17:16 9.52675e-05
10 *16:18 *18:6 0
11 *174:A *16:18 1.40196e-05
12 *181:A q[0] 4.8267e-05
13 *182:A *16:18 7.19234e-06
*RES
1 *173:Z *16:18 48.6772 
2 *16:18 q[0] 4.755 
*END

*D_NET *17 0.000985076
*CONN
*P q[1] O
*I *174:Z O *D BUF_X1
*CAP
1 q[1] 5.18662e-06
2 *174:Z 0.000388186
3 *17:16 0.000393373
4 q[1] q[2] 1.04569e-05
5 *17:16 q[3] 3.01162e-05
6 *17:16 *18:6 5.20328e-05
7 q[0] q[1] 1.04569e-05
8 *16:18 *17:16 9.52675e-05
*RES
1 *174:Z *17:16 49.9629 
2 *17:16 q[1] 3.555 
*END

*D_NET *18 0.00107223
*CONN
*P q[2] O
*I *175:Z O *D BUF_X1
*CAP
1 q[2] 1.6715e-05
2 *175:Z 0
3 *18:6 0.000504872
4 *18:4 0.000488157
5 q[1] q[2] 1.04569e-05
6 *174:A *18:6 0
7 *16:18 *18:6 0
8 *17:16 *18:6 5.20328e-05
*RES
1 *175:Z *18:4 5 
2 *18:4 *18:6 53.25 
3 *18:6 q[2] 17.3764 
*END

*D_NET *19 0.00137767
*CONN
*P q[3] O
*I *176:Z O *D BUF_X1
*CAP
1 q[3] 0.000538684
2 *176:Z 0.000538684
3 q[0] q[3] 1.04569e-05
4 *181:A q[3] 0.000128447
5 *2:10 q[3] 0
6 *16:18 q[3] 0.000131284
7 *17:16 q[3] 3.01162e-05
*RES
1 *176:Z q[3] 47.9307 
*END

*D_NET *15 0.00087401
*CONN
*P reset I
*I *181:A I *D CLKBUF_X1
*CAP
1 reset 0.000348648
2 *181:A 0.000348648
3 *181:A q[0] 4.8267e-05
4 *181:A q[3] 0.000128447
*RES
1 reset *181:A 38.855 
*END
