*SPEF "ieee 1481-1999"
*DESIGN "counter"
*DATE "19:03:39 Friday July 31, 2026"
*VENDOR "The OpenROAD Project"
*PROGRAM "OpenROAD"
*VERSION "26Q3-904-geaaa6e36cb"
*DESIGN_FLOW "NAME_SCOPE LOCAL" "PIN_CAP NONE"
*DIVIDER /
*DELIMITER :
*BUS_DELIMITER []
*T_UNIT 1 NS
*C_UNIT 1 PF
*R_UNIT 1 OHM
*L_UNIT 1 HENRY

*NAME_MAP
*1 _00_
*2 _01_
*3 _02_
*4 _03_
*5 _04_
*6 _05_
*7 _06_
*8 _07_
*9 _08_
*10 _09_
*11 _10_
*12 _11_
*13 _12_
*14 _13_
*15 _14_
*16 _15_
*17 _16_
*18 _17_
*19 clk
*34 clknet_0_clk
*35 clknet_1_0__leaf_clk
*36 clknet_1_1__leaf_clk
*30 count[0]
*31 count[1]
*32 count[2]
*33 count[3]
*24 net1
*25 net2
*20 net3
*21 net4
*22 net5
*23 net6
*37 net7
*38 net8
*39 net9
*28 reset
*29 up_down
*155 FILLER_0_1
*159 FILLER_0_129
*160 FILLER_0_161
*161 FILLER_0_193
*162 FILLER_0_225
*163 FILLER_0_257
*164 FILLER_0_289
*165 FILLER_0_321
*166 FILLER_0_329
*156 FILLER_0_33
*157 FILLER_0_65
*158 FILLER_0_97
*275 FILLER_10_1
*279 FILLER_10_129
*280 FILLER_10_161
*281 FILLER_10_193
*282 FILLER_10_225
*283 FILLER_10_257
*284 FILLER_10_289
*285 FILLER_10_321
*286 FILLER_10_329
*276 FILLER_10_33
*277 FILLER_10_65
*278 FILLER_10_97
*287 FILLER_11_1
*291 FILLER_11_129
*292 FILLER_11_161
*293 FILLER_11_193
*294 FILLER_11_225
*295 FILLER_11_257
*296 FILLER_11_289
*297 FILLER_11_321
*298 FILLER_11_329
*288 FILLER_11_33
*289 FILLER_11_65
*290 FILLER_11_97
*299 FILLER_12_1
*303 FILLER_12_129
*304 FILLER_12_161
*305 FILLER_12_193
*306 FILLER_12_225
*307 FILLER_12_257
*308 FILLER_12_289
*309 FILLER_12_321
*310 FILLER_12_329
*300 FILLER_12_33
*301 FILLER_12_65
*302 FILLER_12_97
*311 FILLER_13_1
*315 FILLER_13_129
*316 FILLER_13_161
*317 FILLER_13_193
*318 FILLER_13_225
*319 FILLER_13_257
*320 FILLER_13_289
*321 FILLER_13_321
*322 FILLER_13_329
*312 FILLER_13_33
*313 FILLER_13_65
*314 FILLER_13_97
*323 FILLER_14_1
*327 FILLER_14_129
*328 FILLER_14_161
*329 FILLER_14_193
*330 FILLER_14_225
*331 FILLER_14_257
*332 FILLER_14_289
*333 FILLER_14_321
*334 FILLER_14_329
*324 FILLER_14_33
*325 FILLER_14_65
*326 FILLER_14_97
*335 FILLER_15_1
*339 FILLER_15_129
*340 FILLER_15_161
*341 FILLER_15_193
*342 FILLER_15_225
*343 FILLER_15_257
*344 FILLER_15_289
*345 FILLER_15_321
*346 FILLER_15_329
*336 FILLER_15_33
*337 FILLER_15_65
*338 FILLER_15_97
*347 FILLER_16_1
*351 FILLER_16_129
*352 FILLER_16_161
*353 FILLER_16_193
*354 FILLER_16_225
*355 FILLER_16_257
*356 FILLER_16_289
*357 FILLER_16_321
*358 FILLER_16_329
*348 FILLER_16_33
*349 FILLER_16_65
*350 FILLER_16_97
*359 FILLER_17_1
*363 FILLER_17_129
*364 FILLER_17_161
*365 FILLER_17_193
*366 FILLER_17_225
*367 FILLER_17_257
*368 FILLER_17_289
*369 FILLER_17_321
*370 FILLER_17_329
*360 FILLER_17_33
*361 FILLER_17_65
*362 FILLER_17_97
*371 FILLER_18_1
*375 FILLER_18_129
*376 FILLER_18_161
*377 FILLER_18_193
*378 FILLER_18_225
*379 FILLER_18_257
*380 FILLER_18_300
*381 FILLER_18_316
*382 FILLER_18_324
*383 FILLER_18_328
*372 FILLER_18_33
*384 FILLER_18_330
*373 FILLER_18_65
*374 FILLER_18_97
*385 FILLER_19_1
*389 FILLER_19_129
*390 FILLER_19_161
*391 FILLER_19_193
*392 FILLER_19_225
*393 FILLER_19_257
*394 FILLER_19_265
*395 FILLER_19_303
*396 FILLER_19_307
*397 FILLER_19_309
*398 FILLER_19_313
*399 FILLER_19_329
*386 FILLER_19_33
*387 FILLER_19_65
*388 FILLER_19_97
*167 FILLER_1_1
*171 FILLER_1_129
*172 FILLER_1_161
*173 FILLER_1_193
*174 FILLER_1_225
*175 FILLER_1_257
*176 FILLER_1_289
*177 FILLER_1_321
*178 FILLER_1_329
*168 FILLER_1_33
*169 FILLER_1_65
*170 FILLER_1_97
*400 FILLER_20_1
*404 FILLER_20_129
*405 FILLER_20_161
*406 FILLER_20_193
*407 FILLER_20_225
*408 FILLER_20_257
*409 FILLER_20_265
*410 FILLER_20_269
*411 FILLER_20_296
*412 FILLER_20_300
*413 FILLER_20_303
*414 FILLER_20_319
*415 FILLER_20_323
*401 FILLER_20_33
*402 FILLER_20_65
*403 FILLER_20_97
*416 FILLER_21_1
*420 FILLER_21_129
*421 FILLER_21_161
*422 FILLER_21_193
*423 FILLER_21_225
*424 FILLER_21_257
*425 FILLER_21_299
*426 FILLER_21_303
*427 FILLER_21_305
*428 FILLER_21_309
*429 FILLER_21_325
*430 FILLER_21_329
*417 FILLER_21_33
*418 FILLER_21_65
*419 FILLER_21_97
*431 FILLER_22_1
*435 FILLER_22_129
*436 FILLER_22_161
*437 FILLER_22_193
*438 FILLER_22_225
*439 FILLER_22_257
*440 FILLER_22_273
*441 FILLER_22_281
*442 FILLER_22_285
*443 FILLER_22_292
*444 FILLER_22_294
*445 FILLER_22_297
*446 FILLER_22_301
*447 FILLER_22_308
*448 FILLER_22_316
*449 FILLER_22_320
*450 FILLER_22_324
*451 FILLER_22_328
*432 FILLER_22_33
*452 FILLER_22_330
*433 FILLER_22_65
*434 FILLER_22_97
*453 FILLER_23_1
*457 FILLER_23_129
*458 FILLER_23_161
*459 FILLER_23_193
*460 FILLER_23_225
*461 FILLER_23_257
*462 FILLER_23_273
*463 FILLER_23_275
*464 FILLER_23_281
*465 FILLER_23_295
*466 FILLER_23_302
*467 FILLER_23_307
*468 FILLER_23_323
*454 FILLER_23_33
*455 FILLER_23_65
*456 FILLER_23_97
*469 FILLER_24_1
*473 FILLER_24_129
*474 FILLER_24_161
*475 FILLER_24_193
*476 FILLER_24_225
*477 FILLER_24_257
*478 FILLER_24_273
*479 FILLER_24_281
*480 FILLER_24_303
*481 FILLER_24_308
*482 FILLER_24_324
*483 FILLER_24_328
*470 FILLER_24_33
*484 FILLER_24_330
*471 FILLER_24_65
*472 FILLER_24_97
*485 FILLER_25_1
*489 FILLER_25_129
*490 FILLER_25_161
*491 FILLER_25_193
*492 FILLER_25_225
*493 FILLER_25_257
*494 FILLER_25_289
*495 FILLER_25_297
*496 FILLER_25_301
*497 FILLER_25_317
*498 FILLER_25_325
*499 FILLER_25_329
*486 FILLER_25_33
*487 FILLER_25_65
*488 FILLER_25_97
*500 FILLER_26_1
*504 FILLER_26_129
*505 FILLER_26_161
*506 FILLER_26_193
*507 FILLER_26_225
*508 FILLER_26_257
*509 FILLER_26_299
*501 FILLER_26_33
*502 FILLER_26_65
*503 FILLER_26_97
*510 FILLER_27_1
*514 FILLER_27_129
*515 FILLER_27_161
*516 FILLER_27_193
*517 FILLER_27_225
*518 FILLER_27_257
*519 FILLER_27_273
*520 FILLER_27_286
*521 FILLER_27_300
*522 FILLER_27_316
*523 FILLER_27_324
*524 FILLER_27_328
*511 FILLER_27_33
*525 FILLER_27_330
*512 FILLER_27_65
*513 FILLER_27_97
*526 FILLER_28_1
*530 FILLER_28_129
*531 FILLER_28_161
*532 FILLER_28_193
*533 FILLER_28_225
*534 FILLER_28_257
*535 FILLER_28_289
*536 FILLER_28_321
*537 FILLER_28_329
*527 FILLER_28_33
*528 FILLER_28_65
*529 FILLER_28_97
*538 FILLER_29_1
*542 FILLER_29_129
*543 FILLER_29_161
*544 FILLER_29_193
*545 FILLER_29_225
*546 FILLER_29_257
*547 FILLER_29_289
*548 FILLER_29_321
*549 FILLER_29_329
*539 FILLER_29_33
*540 FILLER_29_65
*541 FILLER_29_97
*179 FILLER_2_1
*183 FILLER_2_129
*184 FILLER_2_161
*185 FILLER_2_193
*186 FILLER_2_225
*187 FILLER_2_257
*188 FILLER_2_289
*189 FILLER_2_321
*190 FILLER_2_329
*180 FILLER_2_33
*181 FILLER_2_65
*182 FILLER_2_97
*550 FILLER_30_1
*554 FILLER_30_129
*555 FILLER_30_161
*556 FILLER_30_193
*557 FILLER_30_225
*558 FILLER_30_257
*559 FILLER_30_289
*560 FILLER_30_321
*561 FILLER_30_329
*551 FILLER_30_33
*552 FILLER_30_65
*553 FILLER_30_97
*562 FILLER_31_1
*566 FILLER_31_129
*567 FILLER_31_161
*568 FILLER_31_193
*569 FILLER_31_225
*570 FILLER_31_257
*571 FILLER_31_289
*572 FILLER_31_321
*573 FILLER_31_329
*563 FILLER_31_33
*564 FILLER_31_65
*565 FILLER_31_97
*574 FILLER_32_1
*578 FILLER_32_129
*579 FILLER_32_161
*580 FILLER_32_193
*581 FILLER_32_225
*582 FILLER_32_257
*583 FILLER_32_289
*584 FILLER_32_321
*585 FILLER_32_329
*575 FILLER_32_33
*576 FILLER_32_65
*577 FILLER_32_97
*586 FILLER_33_1
*590 FILLER_33_129
*591 FILLER_33_161
*592 FILLER_33_193
*593 FILLER_33_225
*594 FILLER_33_257
*595 FILLER_33_289
*596 FILLER_33_321
*597 FILLER_33_329
*587 FILLER_33_33
*588 FILLER_33_65
*589 FILLER_33_97
*598 FILLER_34_1
*602 FILLER_34_129
*603 FILLER_34_161
*604 FILLER_34_193
*605 FILLER_34_225
*606 FILLER_34_257
*607 FILLER_34_289
*608 FILLER_34_321
*609 FILLER_34_329
*599 FILLER_34_33
*600 FILLER_34_65
*601 FILLER_34_97
*610 FILLER_35_1
*614 FILLER_35_129
*615 FILLER_35_161
*616 FILLER_35_193
*617 FILLER_35_225
*618 FILLER_35_257
*619 FILLER_35_289
*620 FILLER_35_321
*621 FILLER_35_329
*611 FILLER_35_33
*612 FILLER_35_65
*613 FILLER_35_97
*622 FILLER_36_1
*626 FILLER_36_129
*627 FILLER_36_161
*628 FILLER_36_193
*629 FILLER_36_225
*630 FILLER_36_257
*631 FILLER_36_289
*632 FILLER_36_321
*633 FILLER_36_329
*623 FILLER_36_33
*624 FILLER_36_65
*625 FILLER_36_97
*634 FILLER_37_1
*638 FILLER_37_129
*639 FILLER_37_161
*640 FILLER_37_193
*641 FILLER_37_225
*642 FILLER_37_257
*643 FILLER_37_289
*644 FILLER_37_321
*645 FILLER_37_329
*635 FILLER_37_33
*636 FILLER_37_65
*637 FILLER_37_97
*646 FILLER_38_1
*650 FILLER_38_129
*651 FILLER_38_161
*652 FILLER_38_193
*653 FILLER_38_225
*654 FILLER_38_257
*655 FILLER_38_289
*656 FILLER_38_321
*657 FILLER_38_329
*647 FILLER_38_33
*648 FILLER_38_65
*649 FILLER_38_97
*658 FILLER_39_1
*662 FILLER_39_129
*663 FILLER_39_161
*664 FILLER_39_193
*665 FILLER_39_225
*666 FILLER_39_257
*667 FILLER_39_289
*668 FILLER_39_321
*669 FILLER_39_329
*659 FILLER_39_33
*660 FILLER_39_65
*661 FILLER_39_97
*191 FILLER_3_1
*195 FILLER_3_129
*196 FILLER_3_161
*197 FILLER_3_193
*198 FILLER_3_225
*199 FILLER_3_257
*200 FILLER_3_289
*201 FILLER_3_321
*202 FILLER_3_329
*192 FILLER_3_33
*193 FILLER_3_65
*194 FILLER_3_97
*670 FILLER_40_1
*674 FILLER_40_129
*675 FILLER_40_161
*676 FILLER_40_193
*677 FILLER_40_225
*678 FILLER_40_257
*679 FILLER_40_289
*680 FILLER_40_321
*681 FILLER_40_329
*671 FILLER_40_33
*672 FILLER_40_65
*673 FILLER_40_97
*682 FILLER_41_1
*686 FILLER_41_129
*687 FILLER_41_161
*688 FILLER_41_193
*689 FILLER_41_225
*690 FILLER_41_257
*691 FILLER_41_289
*692 FILLER_41_321
*693 FILLER_41_329
*683 FILLER_41_33
*684 FILLER_41_65
*685 FILLER_41_97
*694 FILLER_42_1
*698 FILLER_42_129
*699 FILLER_42_161
*700 FILLER_42_193
*701 FILLER_42_225
*702 FILLER_42_257
*703 FILLER_42_289
*704 FILLER_42_321
*705 FILLER_42_329
*695 FILLER_42_33
*696 FILLER_42_65
*697 FILLER_42_97
*706 FILLER_43_1
*710 FILLER_43_129
*711 FILLER_43_161
*712 FILLER_43_193
*713 FILLER_43_225
*714 FILLER_43_257
*715 FILLER_43_289
*716 FILLER_43_321
*717 FILLER_43_329
*707 FILLER_43_33
*708 FILLER_43_65
*709 FILLER_43_97
*203 FILLER_4_1
*207 FILLER_4_129
*208 FILLER_4_161
*209 FILLER_4_193
*210 FILLER_4_225
*211 FILLER_4_257
*212 FILLER_4_289
*213 FILLER_4_321
*214 FILLER_4_329
*204 FILLER_4_33
*205 FILLER_4_65
*206 FILLER_4_97
*215 FILLER_5_1
*219 FILLER_5_129
*220 FILLER_5_161
*221 FILLER_5_193
*222 FILLER_5_225
*223 FILLER_5_257
*224 FILLER_5_289
*225 FILLER_5_321
*226 FILLER_5_329
*216 FILLER_5_33
*217 FILLER_5_65
*218 FILLER_5_97
*227 FILLER_6_1
*231 FILLER_6_129
*232 FILLER_6_161
*233 FILLER_6_193
*234 FILLER_6_225
*235 FILLER_6_257
*236 FILLER_6_289
*237 FILLER_6_321
*238 FILLER_6_329
*228 FILLER_6_33
*229 FILLER_6_65
*230 FILLER_6_97
*239 FILLER_7_1
*243 FILLER_7_129
*244 FILLER_7_161
*245 FILLER_7_193
*246 FILLER_7_225
*247 FILLER_7_257
*248 FILLER_7_289
*249 FILLER_7_321
*250 FILLER_7_329
*240 FILLER_7_33
*241 FILLER_7_65
*242 FILLER_7_97
*251 FILLER_8_1
*255 FILLER_8_129
*256 FILLER_8_161
*257 FILLER_8_193
*258 FILLER_8_225
*259 FILLER_8_257
*260 FILLER_8_289
*261 FILLER_8_321
*262 FILLER_8_329
*252 FILLER_8_33
*253 FILLER_8_65
*254 FILLER_8_97
*263 FILLER_9_1
*267 FILLER_9_129
*268 FILLER_9_161
*269 FILLER_9_193
*270 FILLER_9_225
*271 FILLER_9_257
*272 FILLER_9_289
*273 FILLER_9_321
*274 FILLER_9_329
*264 FILLER_9_33
*265 FILLER_9_65
*266 FILLER_9_97
*99 PHY_EDGE_ROW_0_Left_44
*55 PHY_EDGE_ROW_0_Right_0
*109 PHY_EDGE_ROW_10_Left_54
*65 PHY_EDGE_ROW_10_Right_10
*110 PHY_EDGE_ROW_11_Left_55
*66 PHY_EDGE_ROW_11_Right_11
*111 PHY_EDGE_ROW_12_Left_56
*67 PHY_EDGE_ROW_12_Right_12
*112 PHY_EDGE_ROW_13_Left_57
*68 PHY_EDGE_ROW_13_Right_13
*113 PHY_EDGE_ROW_14_Left_58
*69 PHY_EDGE_ROW_14_Right_14
*114 PHY_EDGE_ROW_15_Left_59
*70 PHY_EDGE_ROW_15_Right_15
*115 PHY_EDGE_ROW_16_Left_60
*71 PHY_EDGE_ROW_16_Right_16
*116 PHY_EDGE_ROW_17_Left_61
*72 PHY_EDGE_ROW_17_Right_17
*117 PHY_EDGE_ROW_18_Left_62
*73 PHY_EDGE_ROW_18_Right_18
*118 PHY_EDGE_ROW_19_Left_63
*74 PHY_EDGE_ROW_19_Right_19
*100 PHY_EDGE_ROW_1_Left_45
*56 PHY_EDGE_ROW_1_Right_1
*119 PHY_EDGE_ROW_20_Left_64
*75 PHY_EDGE_ROW_20_Right_20
*120 PHY_EDGE_ROW_21_Left_65
*76 PHY_EDGE_ROW_21_Right_21
*121 PHY_EDGE_ROW_22_Left_66
*77 PHY_EDGE_ROW_22_Right_22
*122 PHY_EDGE_ROW_23_Left_67
*78 PHY_EDGE_ROW_23_Right_23
*123 PHY_EDGE_ROW_24_Left_68
*79 PHY_EDGE_ROW_24_Right_24
*124 PHY_EDGE_ROW_25_Left_69
*80 PHY_EDGE_ROW_25_Right_25
*125 PHY_EDGE_ROW_26_Left_70
*81 PHY_EDGE_ROW_26_Right_26
*126 PHY_EDGE_ROW_27_Left_71
*82 PHY_EDGE_ROW_27_Right_27
*127 PHY_EDGE_ROW_28_Left_72
*83 PHY_EDGE_ROW_28_Right_28
*128 PHY_EDGE_ROW_29_Left_73
*84 PHY_EDGE_ROW_29_Right_29
*101 PHY_EDGE_ROW_2_Left_46
*57 PHY_EDGE_ROW_2_Right_2
*129 PHY_EDGE_ROW_30_Left_74
*85 PHY_EDGE_ROW_30_Right_30
*130 PHY_EDGE_ROW_31_Left_75
*86 PHY_EDGE_ROW_31_Right_31
*131 PHY_EDGE_ROW_32_Left_76
*87 PHY_EDGE_ROW_32_Right_32
*132 PHY_EDGE_ROW_33_Left_77
*88 PHY_EDGE_ROW_33_Right_33
*133 PHY_EDGE_ROW_34_Left_78
*89 PHY_EDGE_ROW_34_Right_34
*134 PHY_EDGE_ROW_35_Left_79
*90 PHY_EDGE_ROW_35_Right_35
*135 PHY_EDGE_ROW_36_Left_80
*91 PHY_EDGE_ROW_36_Right_36
*136 PHY_EDGE_ROW_37_Left_81
*92 PHY_EDGE_ROW_37_Right_37
*137 PHY_EDGE_ROW_38_Left_82
*93 PHY_EDGE_ROW_38_Right_38
*138 PHY_EDGE_ROW_39_Left_83
*94 PHY_EDGE_ROW_39_Right_39
*102 PHY_EDGE_ROW_3_Left_47
*58 PHY_EDGE_ROW_3_Right_3
*139 PHY_EDGE_ROW_40_Left_84
*95 PHY_EDGE_ROW_40_Right_40
*140 PHY_EDGE_ROW_41_Left_85
*96 PHY_EDGE_ROW_41_Right_41
*141 PHY_EDGE_ROW_42_Left_86
*97 PHY_EDGE_ROW_42_Right_42
*142 PHY_EDGE_ROW_43_Left_87
*98 PHY_EDGE_ROW_43_Right_43
*103 PHY_EDGE_ROW_4_Left_48
*59 PHY_EDGE_ROW_4_Right_4
*104 PHY_EDGE_ROW_5_Left_49
*60 PHY_EDGE_ROW_5_Right_5
*105 PHY_EDGE_ROW_6_Left_50
*61 PHY_EDGE_ROW_6_Right_6
*106 PHY_EDGE_ROW_7_Left_51
*62 PHY_EDGE_ROW_7_Right_7
*107 PHY_EDGE_ROW_8_Left_52
*63 PHY_EDGE_ROW_8_Right_8
*108 PHY_EDGE_ROW_9_Left_53
*64 PHY_EDGE_ROW_9_Right_9
*40 _18_
*41 _19_
*42 _20_
*43 _21_
*44 _22_
*45 _23_
*46 _24_
*47 _25_
*48 _26_
*49 _27_
*50 _28_
*149 clkbuf_0_clk
*150 clkbuf_1_0__f_clk
*151 clkbuf_1_1__f_clk
*51 count\[0\]\$_DFF_PP0_
*52 count\[1\]\$_DFF_PP0_
*53 count\[2\]\$_DFF_PP0_
*54 count\[3\]\$_DFF_PP0_
*152 hold7
*153 hold8
*154 hold9
*143 input1
*144 input2
*145 output3
*146 output4
*147 output5
*148 output6

*PORTS
clk I
count[0] O
count[1] O
count[2] O
count[3] O
reset I
up_down I

*D_NET *1 0.00035021
*CONN
*I *52:D I *D DFFR_X1
*I *46:ZN O *D INV_X1
*CAP
1 *52:D 0.000148776
2 *46:ZN 0.000148776
3 *52:D *48:B 0
4 *52:D *51:D 0
5 *52:D *51:RN 1.55606e-05
6 *52:D *145:A 0
7 *52:D *146:A 0
8 *52:D *39:10 3.70976e-05
*RES
1 *46:ZN *52:D 35.8572 
*END

*D_NET *2 0.000229364
*CONN
*I *53:D I *D DFFR_X1
*I *45:ZN O *D XNOR2_X1
*CAP
1 *53:D 9.28732e-05
2 *45:ZN 9.28732e-05
3 *53:D *42:A 0
4 *53:D *43:A 0
5 *53:D *53:CK 3.65322e-06
6 *53:D *10:8 3.99648e-05
*RES
1 *45:ZN *53:D 20.5357 
*END

*D_NET *3 0.000465505
*CONN
*I *54:D I *D DFFR_X1
*I *44:ZN O *D XNOR2_X1
*CAP
1 *54:D 0.000139842
2 *44:ZN 0.000139842
3 *54:D *44:B 1.75939e-05
4 *54:D *54:RN 2.39721e-05
5 *54:D *54:CK 0.000106739
6 *54:D *148:A 2.02965e-05
7 *54:D *23:8 1.72191e-05
*RES
1 *44:ZN *54:D 38.25 
*END

*D_NET *4 0.000395493
*CONN
*I *45:A I *D XNOR2_X1
*I *48:CO O *D FA_X1
*CAP
1 *45:A 0.00011463
2 *48:CO 0.00011463
3 *45:A *51:RN 0
4 *45:A *10:12 0.00016197
5 *45:A *15:8 4.26314e-06
*RES
1 *48:CO *45:A 25.25 
*END

*D_NET *5 9.6777e-05
*CONN
*I *46:A I *D INV_X1
*I *48:S O *D FA_X1
*CAP
1 *46:A 4.44512e-05
2 *48:S 4.44512e-05
3 *46:A *42:C1 7.87454e-06
*RES
1 *48:S *46:A 14.6786 
*END

*D_NET *6 0.000385842
*CONN
*I *50:A I *D HA_X1
*I *49:A I *D HA_X1
*I *40:ZN O *D INV_X1
*CAP
1 *50:A 5.96021e-05
2 *49:A 3.45403e-05
3 *40:ZN 9.41425e-05
4 *49:A *42:A 3.35822e-05
5 *49:A *49:B 1.52083e-06
6 *49:A *146:A 9.68647e-06
7 *49:A *25:18 3.35822e-05
8 *50:A *43:A 3.83732e-05
9 *50:A *50:B 8.08125e-05
10 *50:A *154:A 0
11 *50:A *39:10 0
*RES
1 *40:ZN *49:A 24.8571 
2 *40:ZN *50:A 28.0714 
*END

*D_NET *7 0.000358767
*CONN
*I *42:C1 I *D AOI221_X1
*I *49:CO O *D HA_X1
*CAP
1 *42:C1 0.000117617
2 *49:CO 0.000117617
3 *42:C1 *42:A 2.19847e-05
4 *42:C1 *25:18 9.15257e-05
5 *42:C1 *39:10 2.14861e-06
6 *46:A *42:C1 7.87454e-06
*RES
1 *49:CO *42:C1 24.6786 
*END

*D_NET *8 0.000361376
*CONN
*I *41:A2 I *D AND2_X2
*I *49:S O *D HA_X1
*CAP
1 *41:A2 0.000145965
2 *49:S 0.000145965
3 *41:A2 *42:B1 1.02224e-05
4 *41:A2 *48:CI 1.71006e-05
5 *41:A2 *10:12 3.19106e-05
6 *41:A2 *21:10 1.02123e-05
*RES
1 *49:S *41:A2 27.2857 
*END

*D_NET *9 0.000660638
*CONN
*I *42:A I *D AOI221_X1
*I *50:CO O *D HA_X1
*CAP
1 *42:A 0.000179644
2 *50:CO 0.000179644
3 *42:A *42:B1 6.05817e-05
4 *42:A *43:A 3.96215e-05
5 *42:A *48:CI 5.94562e-06
6 *42:A *10:8 0
7 *42:A *10:12 0
8 *42:A *21:10 5.72036e-05
9 *42:A *25:18 8.24308e-05
10 *42:C1 *42:A 2.19847e-05
11 *49:A *42:A 3.35822e-05
12 *53:D *42:A 0
*RES
1 *50:CO *42:A 36.1072 
*END

*D_NET *10 0.000793126
*CONN
*I *45:B I *D XNOR2_X1
*I *41:A1 I *D AND2_X2
*I *42:C2 I *D AOI221_X1
*I *50:S O *D HA_X1
*CAP
1 *45:B 0
2 *41:A1 0
3 *42:C2 6.09465e-05
4 *50:S 4.85365e-05
5 *10:12 0.000230206
6 *10:8 0.000217797
7 *42:C2 *13:18 1.79463e-06
8 *42:C2 *25:18 0
9 *41:A2 *10:12 3.19106e-05
10 *42:A *10:8 0
11 *42:A *10:12 0
12 *45:A *10:12 0.00016197
13 *53:D *10:8 3.99648e-05
*RES
1 *50:S *10:8 11.0357 
2 *10:8 *10:12 22.1786 
3 *10:12 *42:C2 20.6786 
4 *10:12 *41:A1 5 
5 *10:8 *45:B 5 
*END

*D_NET *11 0.000158027
*CONN
*I *154:A I *D CLKBUF_X1
*I *47:ZN O *D INV_X1
*CAP
1 *154:A 6.35002e-05
2 *47:ZN 6.35002e-05
3 *154:A *47:A 1.18547e-06
4 *154:A *50:B 7.72792e-06
5 *154:A *53:RN 6.72327e-06
6 *154:A *153:A 4.79202e-06
7 *154:A *22:10 3.88456e-06
8 *154:A *39:10 6.71316e-06
9 *50:A *154:A 0
*RES
1 *47:ZN *154:A 17.6429 
*END

*D_NET *12 3.01606e-05
*CONN
*I *42:B2 I *D AOI221_X1
*I *41:ZN O *D AND2_X2
*CAP
1 *42:B2 1.50803e-05
2 *41:ZN 1.50803e-05
*RES
1 *41:ZN *42:B2 11.6071 
*END

*D_NET *13 0.00117883
*CONN
*I *44:A I *D XNOR2_X1
*I *42:ZN O *D AOI221_X1
*CAP
1 *44:A 0
2 *42:ZN 0.000588517
3 *13:18 0.000588517
4 *13:18 *148:A 0
5 *13:18 *23:8 0
6 *13:18 *34:44 0
7 *42:C2 *13:18 1.79463e-06
*RES
1 *42:ZN *13:18 46.2714 
2 *13:18 *44:A 5 
*END

*D_NET *14 6.63201e-05
*CONN
*I *44:B I *D XNOR2_X1
*I *43:ZN O *D XNOR2_X1
*CAP
1 *44:B 2.43631e-05
2 *43:ZN 2.43631e-05
3 *54:D *44:B 1.75939e-05
*RES
1 *43:ZN *44:B 12.75 
*END

*D_NET *15 0.000579742
*CONN
*I *48:B I *D FA_X1
*I *51:D I *D DFFR_X1
*I *51:QN O *D DFFR_X1
*CAP
1 *48:B 8.51815e-05
2 *51:D 0.000100115
3 *51:QN 1.49801e-05
4 *15:8 0.000200277
5 *48:B *145:A 5.23883e-05
6 *48:B *20:8 0.000118827
7 *51:D *51:RN 0
8 *51:D *51:CK 2.75346e-06
9 *15:8 *51:RN 9.57492e-07
10 *45:A *15:8 4.26314e-06
11 *52:D *48:B 0
12 *52:D *51:D 0
*RES
1 *51:QN *15:8 11.75 
2 *15:8 *51:D 20.5 
3 *15:8 *48:B 20.4286 
*END

*D_NET *18 9.53984e-05
*CONN
*I *48:CI I *D FA_X1
*I *52:QN O *D DFFR_X1
*CAP
1 *48:CI 3.18652e-05
2 *52:QN 3.18652e-05
3 *48:CI *42:B1 3.61378e-07
4 *48:CI *21:10 8.26038e-06
5 *41:A2 *48:CI 1.71006e-05
6 *42:A *48:CI 5.94562e-06
*RES
1 *52:QN *48:CI 14.1071 
*END

*D_NET *19 0.00119808
*CONN
*P clk I
*I *149:A I *D CLKBUF_X3
*CAP
1 clk 0.000590384
2 *149:A 0
3 *19:14 0.000590384
4 *19:14 count[1] 9.61667e-07
5 *19:14 count[3] 0
6 *19:14 *144:A 8.10666e-06
7 *19:14 *34:15 8.24432e-06
*RES
1 clk *19:14 33.0529 
2 *19:14 *149:A 10 
*END

*D_NET *34 0.000860067
*CONN
*I *151:A I *D CLKBUF_X3
*I *150:A I *D CLKBUF_X3
*I *149:Z O *D CLKBUF_X3
*CAP
1 *151:A 0
2 *150:A 1.7091e-05
3 *149:Z 0
4 *34:44 0.000236464
5 *34:31 0.000236464
6 *34:15 0.000189447
7 *34:6 0.000172356
8 *150:A *51:RN 0
9 *34:15 *51:RN 0
10 *13:18 *34:44 0
11 *19:14 *34:15 8.24432e-06
*RES
1 *149:Z *34:6 10 
2 *34:6 *34:15 22.6786 
3 *34:15 *150:A 6.82143 
4 *149:Z *34:31 10 
5 *34:31 *34:44 19.6586 
6 *34:44 *151:A 10 
*END

*D_NET *35 0.000170791
*CONN
*I *52:CK I *D DFFR_X1
*I *51:CK I *D DFFR_X1
*I *150:Z O *D CLKBUF_X3
*CAP
1 *52:CK 1.50803e-05
2 *51:CK 6.89387e-05
3 *150:Z 8.4019e-05
4 *51:CK *51:RN 0
5 *51:D *51:CK 2.75346e-06
*RES
1 *150:Z *51:CK 17.3929 
2 *150:Z *52:CK 11.6071 
*END

*D_NET *36 0.000532102
*CONN
*I *54:CK I *D DFFR_X1
*I *53:CK I *D DFFR_X1
*I *151:Z O *D CLKBUF_X3
*CAP
1 *54:CK 4.88917e-05
2 *53:CK 0.000100008
3 *151:Z 5.79266e-05
4 *36:8 0.000206826
5 *53:CK *54:RN 5.52692e-06
6 *36:8 *54:RN 2.52965e-06
7 *53:D *53:CK 3.65322e-06
8 *54:D *54:CK 0.000106739
*RES
1 *151:Z *36:8 10.6786 
2 *36:8 *53:CK 15.25 
3 *36:8 *54:CK 22.0357 
*END

*D_NET *30 0.000515764
*CONN
*P count[0] O
*I *145:Z O *D BUF_X1
*CAP
1 count[0] 0.000213939
2 *145:Z 0.000213939
3 count[0] count[1] 7.53317e-05
4 count[0] *143:A 0
5 *144:A count[0] 1.25534e-05
6 *146:A count[0] 0
7 *152:A count[0] 0
8 *25:10 count[0] 0
*RES
1 *145:Z count[0] 43.1943 
*END

*D_NET *31 0.000626341
*CONN
*P count[1] O
*I *146:Z O *D BUF_X1
*CAP
1 count[1] 0.000173696
2 *146:Z 0.000173696
3 count[1] count[3] 2.90443e-06
4 count[1] *143:A 0
5 count[0] count[1] 7.53317e-05
6 *144:A count[1] 0.000191644
7 *152:A count[1] 8.10666e-06
8 *19:14 count[1] 9.61667e-07
*RES
1 *146:Z count[1] 38.7586 
*END

*D_NET *32 0.000444987
*CONN
*P count[2] O
*I *147:Z O *D BUF_X1
*CAP
1 count[2] 0.00021844
2 *147:Z 0.00021844
3 count[2] count[3] 8.10666e-06
4 count[2] *143:A 0
5 *152:A count[2] 0
*RES
1 *147:Z count[2] 39.4357 
*END

*D_NET *33 0.00103321
*CONN
*P count[3] O
*I *148:Z O *D BUF_X1
*CAP
1 count[3] 0.000507046
2 *148:Z 0.000507046
3 count[1] count[3] 2.90443e-06
4 count[2] count[3] 8.10666e-06
5 *152:A count[3] 8.10666e-06
6 *19:14 count[3] 0
*RES
1 *148:Z count[3] 40.4671 
*END

*D_NET *24 0.000274554
*CONN
*I *153:A I *D CLKBUF_X1
*I *143:Z O *D BUF_X1
*CAP
1 *153:A 7.16761e-05
2 *143:Z 7.16761e-05
3 *153:A *47:A 1.19954e-05
4 *153:A *143:A 0.000107999
5 *153:A *39:10 0
6 *50:B *153:A 1.40196e-06
7 *154:A *153:A 4.79202e-06
8 *22:10 *153:A 5.01331e-06
*RES
1 *143:Z *153:A 20.3571 
*END

*D_NET *25 0.00147834
*CONN
*I *48:A I *D FA_X1
*I *43:A I *D XNOR2_X1
*I *40:A I *D INV_X1
*I *144:Z O *D BUF_X1
*CAP
1 *48:A 0
2 *43:A 0.000156892
3 *40:A 0
4 *144:Z 0.000161859
5 *25:18 0.000284585
6 *25:10 0.000289553
7 *43:A *53:RN 3.41146e-05
8 *43:A *54:RN 7.04477e-05
9 *43:A *39:10 0
10 *25:10 count[0] 0
11 *25:18 *53:RN 0
12 *25:18 *39:10 1.27757e-05
13 *42:A *43:A 3.96215e-05
14 *42:A *25:18 8.24308e-05
15 *42:C1 *25:18 9.15257e-05
16 *42:C2 *25:18 0
17 *49:A *25:18 3.35822e-05
18 *50:A *43:A 3.83732e-05
19 *53:D *43:A 0
20 *145:A *25:10 0.000130337
21 *145:A *25:18 4.21824e-05
22 *148:A *43:A 1.00571e-05
23 *22:10 *43:A 0
*RES
1 *144:Z *25:10 28.9286 
2 *25:10 *25:18 24.1429 
3 *25:18 *40:A 5 
4 *25:18 *43:A 25.6786 
5 *25:10 *48:A 10 
*END

*D_NET *20 0.000728272
*CONN
*I *145:A I *D BUF_X1
*I *42:B1 I *D AOI221_X1
*I *51:Q O *D DFFR_X1
*CAP
1 *145:A 7.30347e-05
2 *42:B1 3.86132e-05
3 *51:Q 4.50385e-05
4 *20:8 0.000156686
5 *145:A *25:10 0.000130337
6 *145:A *25:18 4.21824e-05
7 *41:A2 *42:B1 1.02224e-05
8 *42:A *42:B1 6.05817e-05
9 *48:B *145:A 5.23883e-05
10 *48:B *20:8 0.000118827
11 *48:CI *42:B1 3.61378e-07
12 *52:D *145:A 0
*RES
1 *51:Q *20:8 16.3571 
2 *20:8 *42:B1 15.75 
3 *20:8 *145:A 20.4286 
*END

*D_NET *21 0.000409501
*CONN
*I *146:A I *D BUF_X1
*I *49:B I *D HA_X1
*I *52:Q O *D DFFR_X1
*CAP
1 *146:A 9.9171e-05
2 *49:B 8.14872e-06
3 *52:Q 4.70557e-05
4 *21:10 0.000154375
5 *49:B *39:10 2.61627e-06
6 *146:A count[0] 0
7 *146:A *39:10 1.12499e-05
8 *41:A2 *21:10 1.02123e-05
9 *42:A *21:10 5.72036e-05
10 *48:CI *21:10 8.26038e-06
11 *49:A *49:B 1.52083e-06
12 *49:A *146:A 9.68647e-06
13 *52:D *146:A 0
*RES
1 *52:Q *21:10 16.6786 
2 *21:10 *49:B 10.9286 
3 *21:10 *146:A 19.6429 
*END

*D_NET *22 0.000390759
*CONN
*I *147:A I *D BUF_X1
*I *50:B I *D HA_X1
*I *53:Q O *D DFFR_X1
*CAP
1 *147:A 0
2 *50:B 9.67954e-05
3 *53:Q 4.9164e-05
4 *22:10 0.000145959
5 *50:B *153:A 1.40196e-06
6 *22:10 *43:A 0
7 *22:10 *53:RN 0
8 *22:10 *143:A 0
9 *22:10 *153:A 5.01331e-06
10 *50:A *50:B 8.08125e-05
11 *154:A *50:B 7.72792e-06
12 *154:A *22:10 3.88456e-06
*RES
1 *53:Q *22:10 10.6071 
2 *22:10 *50:B 26.1786 
3 *22:10 *147:A 5 
*END

*D_NET *23 0.0002276
*CONN
*I *148:A I *D BUF_X1
*I *43:B I *D XNOR2_X1
*I *54:Q O *D DFFR_X1
*CAP
1 *148:A 7.51412e-05
2 *43:B 0
3 *54:Q 1.48724e-05
4 *23:8 9.00136e-05
5 *148:A *43:A 1.00571e-05
6 *54:D *148:A 2.02965e-05
7 *54:D *23:8 1.72191e-05
8 *13:18 *148:A 0
9 *13:18 *23:8 0
*RES
1 *54:Q *23:8 12.2857 
2 *23:8 *43:B 10 
3 *23:8 *148:A 18.0357 
*END

*D_NET *37 0.000548447
*CONN
*I *143:A I *D BUF_X1
*I *152:Z O *D CLKBUF_X1
*CAP
1 *143:A 0.000204836
2 *152:Z 0.000204836
3 *143:A *47:A 0
4 *143:A *39:10 0
5 count[0] *143:A 0
6 count[1] *143:A 0
7 count[2] *143:A 0
8 *152:A *143:A 3.07768e-05
9 *153:A *143:A 0.000107999
10 *22:10 *143:A 0
*RES
1 *152:Z *143:A 44.4643 
*END

*D_NET *38 8.44373e-05
*CONN
*I *47:A I *D INV_X1
*I *153:Z O *D CLKBUF_X1
*CAP
1 *47:A 3.25839e-05
2 *153:Z 3.25839e-05
3 *47:A *39:10 6.0887e-06
4 *143:A *47:A 0
5 *153:A *47:A 1.19954e-05
6 *154:A *47:A 1.18547e-06
*RES
1 *153:Z *47:A 14.2143 
*END

*D_NET *39 0.00118884
*CONN
*I *54:RN I *D DFFR_X1
*I *53:RN I *D DFFR_X1
*I *52:RN I *D DFFR_X1
*I *51:RN I *D DFFR_X1
*I *154:Z O *D CLKBUF_X1
*CAP
1 *54:RN 0.000112333
2 *53:RN 0.000168707
3 *52:RN 0
4 *51:RN 9.79564e-05
5 *154:Z 0.000264869
6 *39:10 0.000306452
7 *42:C1 *39:10 2.14861e-06
8 *43:A *53:RN 3.41146e-05
9 *43:A *54:RN 7.04477e-05
10 *43:A *39:10 0
11 *45:A *51:RN 0
12 *47:A *39:10 6.0887e-06
13 *49:B *39:10 2.61627e-06
14 *50:A *39:10 0
15 *51:D *51:RN 0
16 *51:CK *51:RN 0
17 *52:D *51:RN 1.55606e-05
18 *52:D *39:10 3.70976e-05
19 *53:CK *54:RN 5.52692e-06
20 *54:D *54:RN 2.39721e-05
21 *143:A *39:10 0
22 *146:A *39:10 1.12499e-05
23 *150:A *51:RN 0
24 *153:A *39:10 0
25 *154:A *53:RN 6.72327e-06
26 *154:A *39:10 6.71316e-06
27 *15:8 *51:RN 9.57492e-07
28 *22:10 *53:RN 0
29 *25:18 *53:RN 0
30 *25:18 *39:10 1.27757e-05
31 *34:15 *51:RN 0
32 *36:8 *54:RN 2.52965e-06
*RES
1 *154:Z *39:10 32.8572 
2 *39:10 *51:RN 20.3929 
3 *39:10 *52:RN 10 
4 *154:Z *53:RN 16.8929 
5 *53:RN *54:RN 34.1786 
*END

*D_NET *28 0.000260329
*CONN
*P reset I
*I *152:A I *D CLKBUF_X1
*CAP
1 reset 0.000106669
2 *152:A 0.000106669
3 *152:A count[0] 0
4 *152:A count[1] 8.10666e-06
5 *152:A count[2] 0
6 *152:A count[3] 8.10666e-06
7 *152:A *143:A 3.07768e-05
*RES
1 reset *152:A 30.0871 
*END

*D_NET *29 0.000424742
*CONN
*P up_down I
*I *144:A I *D BUF_X1
*CAP
1 up_down 0.000106219
2 *144:A 0.000106219
3 *144:A count[0] 1.25534e-05
4 *144:A count[1] 0.000191644
5 *19:14 *144:A 8.10666e-06
*RES
1 up_down *144:A 32.7657 
*END
